Li4 Mn2 Ni2 O8
1.0
2.001468 4.158665 2.064735
4.088519 -2.102670 -2.102287
0.011096 4.154576 -4.132265
Li Mn Ni O
4 2 2 8
direct
0.498984 0.254776 0.121504 Li
0.000181 0.495727 0.253400 Li
0.491681 0.265792 0.627461 Li
0.007662 0.484599 0.747459 Li
0.007851 0.011340 0.997790 Mn
0.491260 0.738981 0.377190 Mn
0.006313 0.010795 0.497964 Ni
0.492835 0.739539 0.877016 Ni
0.722514 0.641436 0.553024 O
0.249562 0.875139 0.687500 O
0.738870 0.651613 0.079836 O
0.249570 0.875166 0.187496 O
0.760291 0.098722 0.295143 O
0.259605 0.398571 0.433519 O
0.776589 0.108880 0.821959 O
0.239533 0.351748 0.941389 O
