Li9 Ti3 Mn3 V1 Cr2 O18                  
   1.00000000000000     
    -0.0225610000000000    6.4135369999999998    6.2602630000000001
     6.4841480000000002   -0.0085350000000000    6.2466030000000003
     4.3245300000000002    4.2681839999999998   -0.0075900000000000
   Li   Ti   Mn   V    Cr   O 
     9     3     3     1     2    18
Direct
  0.0096070000000026  0.3411359999999988  0.9850470000000016
  0.9932939999999988  0.6584769999999978  0.5196839999999980
  0.3631150000000005  0.9894099999999995  0.9687430000000035
  0.3374960000000016  0.3199040000000011  0.9961279999999988
  0.3369390000000010  0.3261030000000034  0.5193650000000005
  0.3481570000000005  0.6768980000000013  0.9829659999999976
  0.6434349999999966  0.9938319999999976  0.5326799999999992
  0.6541139999999999  0.6913089999999968  0.9636550000000028
  0.6558899999999994  0.6819500000000005  0.5220229999999972
  0.0025610000000000  0.9947429999999997  0.0304050000000018
  0.0036660000000026  0.3531570000000031  0.4867399999999975
  0.3520419999999973  0.6535409999999970  0.4912580000000020
  0.3485640000000032  0.9986269999999990  0.5061389999999975
  0.6461880000000022  0.3526150000000001  0.0011980000000023
  0.6655760000000015  0.3324849999999984  0.4945880000000002
  0.0016719999999992  0.0000760000000000  0.4984809999999982
  0.0003510000000020  0.6631730000000005  0.9974520000000027
  0.6590860000000021  0.9965430000000026  0.0033689999999993
  0.1437189999999973  0.1685090000000002  0.2945110000000000
  0.1427949999999996  0.1648569999999978  0.7563310000000030
  0.1522829999999971  0.4983750000000029  0.2534130000000019
  0.1673370000000034  0.5284300000000002  0.7347210000000004
  0.1558989999999980  0.8450610000000012  0.2442769999999967
  0.1529170000000022  0.8351180000000014  0.7539980000000028
  0.5156860000000023  0.1610609999999966  0.2216669999999965
  0.5109759999999994  0.1565909999999988  0.7601749999999967
  0.4813639999999992  0.5113229999999973  0.2687370000000016
  0.4867569999999972  0.5176310000000015  0.7250530000000026
  0.4904129999999967  0.8312590000000029  0.2535110000000032
  0.5023529999999994  0.8296950000000010  0.7495040000000017
  0.8492919999999984  0.1435609999999983  0.2506160000000008
  0.8399950000000018  0.1486900000000020  0.7636680000000027
  0.8539680000000018  0.4841559999999987  0.2559899999999971
  0.8453450000000018  0.4797859999999972  0.7363280000000003
  0.8477400000000017  0.8374519999999990  0.2100969999999975
  0.8394059999999968  0.8344650000000016  0.7674829999999986
 
  0.00000000E+00  0.00000000E+00  0.00000000E+00
  0.00000000E+00  0.00000000E+00  0.00000000E+00
  0.00000000E+00  0.00000000E+00  0.00000000E+00
  0.00000000E+00  0.00000000E+00  0.00000000E+00
  0.00000000E+00  0.00000000E+00  0.00000000E+00
  0.00000000E+00  0.00000000E+00  0.00000000E+00
  0.00000000E+00  0.00000000E+00  0.00000000E+00
  0.00000000E+00  0.00000000E+00  0.00000000E+00
  0.00000000E+00  0.00000000E+00  0.00000000E+00
  0.00000000E+00  0.00000000E+00  0.00000000E+00
  0.00000000E+00  0.00000000E+00  0.00000000E+00
  0.00000000E+00  0.00000000E+00  0.00000000E+00
  0.00000000E+00  0.00000000E+00  0.00000000E+00
  0.00000000E+00  0.00000000E+00  0.00000000E+00
  0.00000000E+00  0.00000000E+00  0.00000000E+00
  0.00000000E+00  0.00000000E+00  0.00000000E+00
  0.00000000E+00  0.00000000E+00  0.00000000E+00
  0.00000000E+00  0.00000000E+00  0.00000000E+00
  0.00000000E+00  0.00000000E+00  0.00000000E+00
  0.00000000E+00  0.00000000E+00  0.00000000E+00
  0.00000000E+00  0.00000000E+00  0.00000000E+00
  0.00000000E+00  0.00000000E+00  0.00000000E+00
  0.00000000E+00  0.00000000E+00  0.00000000E+00
  0.00000000E+00  0.00000000E+00  0.00000000E+00
  0.00000000E+00  0.00000000E+00  0.00000000E+00
  0.00000000E+00  0.00000000E+00  0.00000000E+00
  0.00000000E+00  0.00000000E+00  0.00000000E+00
  0.00000000E+00  0.00000000E+00  0.00000000E+00
  0.00000000E+00  0.00000000E+00  0.00000000E+00
  0.00000000E+00  0.00000000E+00  0.00000000E+00
  0.00000000E+00  0.00000000E+00  0.00000000E+00
  0.00000000E+00  0.00000000E+00  0.00000000E+00
  0.00000000E+00  0.00000000E+00  0.00000000E+00
  0.00000000E+00  0.00000000E+00  0.00000000E+00
  0.00000000E+00  0.00000000E+00  0.00000000E+00
  0.00000000E+00  0.00000000E+00  0.00000000E+00
