Li9 V3 Co3 Ni3 O18                      
   1.00000000000000     
     0.0381950000000000    6.1833660000000004    6.3036360000000000
     6.1965100000000000    0.0374520000000000    6.3036669999999999
     4.1240740000000002    4.1156069999999998    0.0320900000000000
   Li   V    Co   Ni   O 
     9     3     3     3    18
Direct
  0.0029090000000025  0.0100949999999997  0.9884050000000002
  0.0238950000000031  0.3361790000000013  0.4830490000000012
  0.0180590000000009  0.6523940000000010  0.9993100000000013
  0.0140680000000017  0.6550379999999976  0.4963150000000027
  0.3309959999999990  0.0082659999999990  0.9886669999999995
  0.3175969999999992  0.3387000000000029  0.0090629999999976
  0.3278970000000001  0.6515500000000003  0.5102819999999966
  0.6596430000000026  0.3337689999999967  0.0203819999999979
  0.6527579999999986  0.6698900000000023  0.0083729999999989
  0.0186640000000011  0.9870189999999965  0.4856410000000011
  0.6651090000000011  0.0024220000000028  0.9955309999999997
  0.6818700000000035  0.6437579999999983  0.5112669999999966
  0.0026500000000027  0.3381439999999998  0.9899130000000014
  0.3319359999999989  0.0043549999999968  0.4984439999999992
  0.3291949999999986  0.3367020000000025  0.4976100000000017
  0.3240759999999980  0.6690899999999971  0.0127529999999965
  0.6676980000000015  0.9988650000000021  0.5009250000000023
  0.6579109999999986  0.3373739999999970  0.4972619999999992
  0.1590339999999983  0.1526629999999969  0.2802399999999992
  0.1865769999999998  0.1693039999999968  0.7199450000000027
  0.1814350000000005  0.4953879999999984  0.2535250000000033
  0.1701189999999997  0.4800589999999971  0.7479540000000000
  0.1531469999999970  0.8431190000000015  0.2675509999999974
  0.1737040000000007  0.8529770000000028  0.7289420000000035
  0.4928250000000034  0.1575899999999990  0.2624020000000016
  0.5032899999999998  0.1642250000000018  0.7499729999999971
  0.4857319999999987  0.4911430000000010  0.2673509999999979
  0.5135339999999999  0.5229539999999986  0.7221649999999968
  0.5102970000000013  0.8464749999999981  0.2486359999999976
  0.5003109999999964  0.8320799999999977  0.7219729999999984
  0.8423349999999985  0.1659140000000008  0.2575059999999993
  0.8210399999999964  0.1472910000000027  0.7640699999999967
  0.8169340000000034  0.5138430000000014  0.2659209999999987
  0.8195619999999977  0.5150760000000005  0.7361999999999966
  0.8111600000000010  0.8284700000000029  0.2601259999999996
  0.8320340000000002  0.8478190000000012  0.7523290000000031
 
  0.00000000E+00  0.00000000E+00  0.00000000E+00
  0.00000000E+00  0.00000000E+00  0.00000000E+00
  0.00000000E+00  0.00000000E+00  0.00000000E+00
  0.00000000E+00  0.00000000E+00  0.00000000E+00
  0.00000000E+00  0.00000000E+00  0.00000000E+00
  0.00000000E+00  0.00000000E+00  0.00000000E+00
  0.00000000E+00  0.00000000E+00  0.00000000E+00
  0.00000000E+00  0.00000000E+00  0.00000000E+00
  0.00000000E+00  0.00000000E+00  0.00000000E+00
  0.00000000E+00  0.00000000E+00  0.00000000E+00
  0.00000000E+00  0.00000000E+00  0.00000000E+00
  0.00000000E+00  0.00000000E+00  0.00000000E+00
  0.00000000E+00  0.00000000E+00  0.00000000E+00
  0.00000000E+00  0.00000000E+00  0.00000000E+00
  0.00000000E+00  0.00000000E+00  0.00000000E+00
  0.00000000E+00  0.00000000E+00  0.00000000E+00
  0.00000000E+00  0.00000000E+00  0.00000000E+00
  0.00000000E+00  0.00000000E+00  0.00000000E+00
  0.00000000E+00  0.00000000E+00  0.00000000E+00
  0.00000000E+00  0.00000000E+00  0.00000000E+00
  0.00000000E+00  0.00000000E+00  0.00000000E+00
  0.00000000E+00  0.00000000E+00  0.00000000E+00
  0.00000000E+00  0.00000000E+00  0.00000000E+00
  0.00000000E+00  0.00000000E+00  0.00000000E+00
  0.00000000E+00  0.00000000E+00  0.00000000E+00
  0.00000000E+00  0.00000000E+00  0.00000000E+00
  0.00000000E+00  0.00000000E+00  0.00000000E+00
  0.00000000E+00  0.00000000E+00  0.00000000E+00
  0.00000000E+00  0.00000000E+00  0.00000000E+00
  0.00000000E+00  0.00000000E+00  0.00000000E+00
  0.00000000E+00  0.00000000E+00  0.00000000E+00
  0.00000000E+00  0.00000000E+00  0.00000000E+00
  0.00000000E+00  0.00000000E+00  0.00000000E+00
  0.00000000E+00  0.00000000E+00  0.00000000E+00
  0.00000000E+00  0.00000000E+00  0.00000000E+00
  0.00000000E+00  0.00000000E+00  0.00000000E+00
