Li9 Ti1 Cr3 Fe3 Co1 Cu1 O18
1.0
-0.007490 6.205382 6.471965
6.086804 -0.015809 6.480078
4.057798 4.142370 -0.009656
Li Ti Cr Fe Co Cu O
9 1 3 3 1 1 18
direct
0.995108 0.993480 0.012793 Li
0.989588 0.334743 0.504650 Li
0.340664 0.331370 0.500535 Li
0.345442 0.669306 0.481701 Li
0.663455 0.995660 0.009375 Li
0.667655 0.990511 0.502629 Li
0.660564 0.339923 0.498486 Li
0.667369 0.658176 0.014197 Li
0.673597 0.675167 0.477594 Li
0.671864 0.323211 0.004462 Ti
0.992320 0.671198 0.006556 Cr
0.340181 0.999155 0.998125 Cr
0.332146 0.671303 0.999102 Cr
0.988270 -0.000621 0.517080 Fe
0.993750 0.340802 0.992486 Fe
0.344493 0.330079 0.986771 Fe
0.334332 0.003051 0.501621 Co
0.995546 0.666028 0.498826 Cu
0.168582 0.165631 0.252022 O
0.180110 0.158155 0.744881 O
0.173789 0.514216 0.224032 O
0.156705 0.493566 0.763928 O
0.179725 0.848848 0.234894 O
0.159189 0.829707 0.758548 O
0.504457 0.179144 0.233290 O
0.486001 0.162933 0.770806 O
0.502828 0.500383 0.225610 O
0.496887 0.488865 0.772960 O
0.482025 0.853591 0.266427 O
0.480112 0.835140 0.754300 O
0.836740 0.176148 0.241765 O
0.829489 0.167336 0.752517 O
0.848611 0.506451 0.222881 O
0.825062 0.473419 0.778634 O
0.842574 0.819242 0.261418 O
0.850768 0.834683 0.734097 O
