Li6 Mn3 Ni3 O12
1.0
2.073062 2.072551 0.000045
-8.516815 8.516159 -0.000600
0.028822 -2.101428 6.136555
Li Mn Ni O
6 3 3 12
direct
0.916538 0.845153 0.830341 Li
0.592710 0.542327 0.186880 Li
0.249546 0.695948 0.498908 Li
0.910382 0.363218 0.825938 Li
0.583816 0.994781 0.165928 Li
0.246908 0.182896 0.493826 Li
0.914365 0.103802 0.828909 Mn
0.585111 0.273215 0.171502 Mn
0.914840 0.602065 0.831648 Mn
0.246666 0.439822 0.495709 Ni
0.586771 0.772562 0.173398 Ni
0.248206 0.931702 0.495286 Ni
0.421957 0.001691 0.844269 O
0.071218 0.644037 0.143491 O
0.754351 0.818667 0.507649 O
0.415208 0.490550 0.832833 O
0.077693 0.161541 0.156284 O
0.737623 0.312361 0.476850 O
0.080997 0.890330 0.161144 O
0.756413 0.558370 0.515297 O
0.414153 0.708312 0.829920 O
0.077405 0.377648 0.156674 O
0.763625 0.065203 0.526686 O
0.423169 0.219319 0.846468 O
