Li9 Ti3 Mn1 V1 Co1 Cu2 Ni1 O18
1.0
-0.014465 6.338041 6.228975
6.417454 -0.006337 6.221314
4.267235 4.209530 0.006320
Li Ti Mn V Co Cu Ni O
9 3 1 1 1 2 1 18
direct
0.016208 0.353328 0.968507 Li
0.010926 0.354156 0.481266 Li
0.019208 0.626411 0.027874 Li
0.024036 0.627205 0.497084 Li
0.344083 0.002334 0.493280 Li
0.303659 0.350341 0.016624 Li
0.299354 0.352246 0.504892 Li
0.320078 0.638160 0.028718 Li
0.672471 0.676770 0.987461 Li
0.012939 0.980461 0.989710 Ti
0.667403 0.348343 0.992346 Ti
0.660950 0.348748 0.488961 Ti
0.344739 0.992458 0.993059 Mn
0.999104 0.005977 0.498229 V
0.316994 0.658519 0.523571 Co
0.660836 0.000719 0.007266 Cu
0.659103 0.001750 0.502637 Cu
0.668141 0.678411 0.490647 Ni
0.163017 0.136042 0.253451 O
0.172905 0.133285 0.787592 O
0.170004 0.492416 0.252276 O
0.170299 0.504084 0.743811 O
0.129429 0.847857 0.265551 O
0.146115 0.847885 0.750280 O
0.535948 0.160380 0.225093 O
0.517374 0.179448 0.759664 O
0.518129 0.473804 0.252965 O
0.521966 0.487720 0.747598 O
0.476595 0.821645 0.263186 O
0.500453 0.842877 0.752135 O
0.828353 0.178210 0.250150 O
0.859298 0.177515 0.729918 O
0.810732 0.498739 0.274309 O
0.818516 0.497428 0.761557 O
0.834187 0.845602 0.216785 O
0.826446 0.878727 0.721545 O
