Li5 Ti11 O16                            
   1.00000000000000     
     0.0448260000000000    4.1881709999999996    4.1885180000000002
    17.2457320000000003    2.2468159999999999   18.8740969999999990
     4.3233920000000001    4.2045649999999997    4.2169960000000000
   Li   Ti   O 
     5    11    16
Direct
  0.7564220000000006  0.4962250000000026  0.9949009999999987
  0.5290930000000031  0.8699349999999981  0.0422980000000024
  0.4478089999999995  0.1308719999999965  0.9952240000000003
  0.3902760000000001  0.2527079999999984  0.9717529999999996
  0.1845659999999967  0.6266620000000032  0.0102540000000033
  0.9565130000000011  0.9962510000000009  0.0358939999999990
  0.9876659999999973  0.1332840000000033  0.9379089999999977
  0.8280760000000029  0.2481530000000021  0.0477530000000002
  0.8417310000000029  0.3753809999999973  0.9739420000000010
  0.7185289999999966  0.6183279999999982  0.9900980000000033
  0.5796059999999983  0.7476160000000007  0.0365579999999994
  0.4736199999999968  0.0019289999999970  0.0221170000000015
  0.3571310000000025  0.3743010000000027  0.9748299999999972
  0.2126250000000027  0.5025529999999989  0.0280059999999978
  0.1007499999999979  0.7484040000000007  0.0301469999999995
  0.1199299999999965  0.8783030000000025  0.9318280000000030
  0.9776039999999995  0.9987599999999972  0.5207509999999971
  0.9256010000000003  0.1239970000000028  0.5134919999999994
  0.8966589999999997  0.2534750000000017  0.4740919999999988
  0.8442209999999974  0.3742370000000008  0.4732389999999995
  0.7450830000000011  0.5055890000000005  0.5105659999999972
  0.6760659999999987  0.6301470000000009  0.4951620000000005
  0.6144060000000025  0.7490740000000002  0.5144570000000002
  0.6080010000000016  0.8747159999999994  0.4450720000000032
  0.4956689999999995  0.0020779999999974  0.4984230000000025
  0.4431579999999968  0.1253529999999969  0.4810319999999990
  0.3537830000000000  0.2450639999999993  0.5559650000000005
  0.3260160000000027  0.3754810000000006  0.4850339999999989
  0.2638660000000002  0.4956049999999976  0.4998170000000002
  0.1925590000000028  0.6174469999999985  0.4978649999999973
  0.1019670000000019  0.7523350000000022  0.5112209999999990
  0.0512060000000005  0.8755239999999986  0.5065760000000026
 
  0.00000000E+00  0.00000000E+00  0.00000000E+00
  0.00000000E+00  0.00000000E+00  0.00000000E+00
  0.00000000E+00  0.00000000E+00  0.00000000E+00
  0.00000000E+00  0.00000000E+00  0.00000000E+00
  0.00000000E+00  0.00000000E+00  0.00000000E+00
  0.00000000E+00  0.00000000E+00  0.00000000E+00
  0.00000000E+00  0.00000000E+00  0.00000000E+00
  0.00000000E+00  0.00000000E+00  0.00000000E+00
  0.00000000E+00  0.00000000E+00  0.00000000E+00
  0.00000000E+00  0.00000000E+00  0.00000000E+00
  0.00000000E+00  0.00000000E+00  0.00000000E+00
  0.00000000E+00  0.00000000E+00  0.00000000E+00
  0.00000000E+00  0.00000000E+00  0.00000000E+00
  0.00000000E+00  0.00000000E+00  0.00000000E+00
  0.00000000E+00  0.00000000E+00  0.00000000E+00
  0.00000000E+00  0.00000000E+00  0.00000000E+00
  0.00000000E+00  0.00000000E+00  0.00000000E+00
  0.00000000E+00  0.00000000E+00  0.00000000E+00
  0.00000000E+00  0.00000000E+00  0.00000000E+00
  0.00000000E+00  0.00000000E+00  0.00000000E+00
  0.00000000E+00  0.00000000E+00  0.00000000E+00
  0.00000000E+00  0.00000000E+00  0.00000000E+00
  0.00000000E+00  0.00000000E+00  0.00000000E+00
  0.00000000E+00  0.00000000E+00  0.00000000E+00
  0.00000000E+00  0.00000000E+00  0.00000000E+00
  0.00000000E+00  0.00000000E+00  0.00000000E+00
  0.00000000E+00  0.00000000E+00  0.00000000E+00
  0.00000000E+00  0.00000000E+00  0.00000000E+00
  0.00000000E+00  0.00000000E+00  0.00000000E+00
  0.00000000E+00  0.00000000E+00  0.00000000E+00
  0.00000000E+00  0.00000000E+00  0.00000000E+00
  0.00000000E+00  0.00000000E+00  0.00000000E+00
