Li9 Mn3 Cu6 O18
1.0
-0.057786 6.389056 6.031847
6.341800 -0.047332 6.023738
4.190053 4.215011 0.005927
Li Mn Cu O
9 3 6 18
direct
0.017689 0.977422 0.516134 Li
0.013995 0.334607 0.476403 Li
0.012749 0.663164 0.009039 Li
0.005048 0.670586 0.482560 Li
0.326904 0.009418 0.496932 Li
0.318657 0.340698 0.022296 Li
0.326228 0.340293 0.478035 Li
0.304122 0.680992 0.016307 Li
0.669584 0.993411 0.005696 Li
0.014199 0.337264 0.974254 Mn
0.659981 0.328262 0.999169 Mn
0.665889 0.325423 0.503211 Mn
0.333309 0.006873 0.000229 Cu
0.315811 0.673499 0.518814 Cu
0.669320 0.668775 0.004478 Cu
0.676046 0.665941 0.498803 Cu
0.006888 0.988730 0.998353 Cu
0.667756 0.994498 0.507492 Cu
0.516011 0.795903 0.284871 O
0.502641 0.839642 0.788896 O
0.825035 0.843396 0.265204 O
0.818456 0.839891 0.747122 O
0.157275 0.178785 0.203762 O
0.134738 0.180372 0.760230 O
0.166003 0.501269 0.247757 O
0.161229 0.499670 0.745162 O
0.189019 0.831037 0.258969 O
0.160278 0.848508 0.760071 O
0.512239 0.166903 0.246270 O
0.510362 0.162437 0.734956 O
0.529805 0.472700 0.244876 O
0.524646 0.480671 0.742264 O
0.821201 0.183207 0.226446 O
0.805389 0.197571 0.739522 O
0.841204 0.480058 0.225323 O
0.820293 0.498121 0.770095 O
