Li9 Sc5 Ti2 Cu2 O18
1.0
-0.001492 6.456625 6.450809
6.455510 0.029302 6.420098
4.322436 4.302499 0.000904
Li Sc Ti Cu O
9 5 2 2 18
direct
0.975823 0.358107 0.987055 Li
0.993581 0.334602 0.509985 Li
0.362240 0.339358 0.976964 Li
0.346985 0.647165 0.999122 Li
0.358211 0.649227 0.501335 Li
0.663896 0.007647 0.997450 Li
0.656874 0.346506 0.989380 Li
0.651322 0.342270 0.516443 Li
0.674469 0.633956 0.011178 Li
0.993910 0.010240 0.989177 Sc
0.991649 0.007615 0.507310 Sc
0.340262 0.984746 0.021372 Sc
0.337161 0.350805 0.482352 Sc
0.661639 0.655025 0.513619 Sc
0.026277 0.628180 0.998855 Ti
0.661040 0.010456 0.485715 Ti
0.994444 0.667851 0.501863 Cu
0.335201 0.003989 0.491072 Cu
0.177298 0.144024 0.261045 O
0.179349 0.151058 0.748414 O
0.154893 0.508381 0.246359 O
0.168324 0.489705 0.780540 O
0.154054 0.840620 0.250889 O
0.128943 0.821837 0.790815 O
0.513219 0.171750 0.263280 O
0.503893 0.152930 0.733169 O
0.488254 0.500103 0.263547 O
0.508269 0.503885 0.742977 O
0.489122 0.842115 0.270579 O
0.507636 0.848742 0.726542 O
0.827734 0.150689 0.266381 O
0.844825 0.163031 0.741649 O
0.843434 0.524206 0.223370 O
0.841613 0.515018 0.725960 O
0.810361 0.857804 0.253495 O
0.833797 0.836356 0.730742 O
