Li2 Ti2 O4                              
   1.00000000000000     
     4.0403880000000001    0.0000000000000000    0.0000000000000000
     0.0013400000000000    4.0403880000000001    0.0000000000000000
     2.0199370000000001    2.0043199999999999    4.1973050000000001
   Li   Ti   O 
     2     2     4
Direct
  0.4942670000000007  0.9894650000000027  0.0009110000000021
  0.7412130000000019  0.7422919999999991  0.4964549999999974
  0.2461929999999981  0.2474599999999967  0.4974350000000030
  0.0000690000000034  0.4947820000000007  0.0001290000000012
  0.4936539999999994  0.4939699999999974  0.0027820000000034
  0.7425500000000014  0.2482430000000022  0.4947820000000007
  0.0000000000000000  0.0000000000000000  0.0000000000000000
  0.2462620000000015  0.7421340000000001  0.4975840000000034
 
  0.00000000E+00  0.00000000E+00  0.00000000E+00
  0.00000000E+00  0.00000000E+00  0.00000000E+00
  0.00000000E+00  0.00000000E+00  0.00000000E+00
  0.00000000E+00  0.00000000E+00  0.00000000E+00
  0.00000000E+00  0.00000000E+00  0.00000000E+00
  0.00000000E+00  0.00000000E+00  0.00000000E+00
  0.00000000E+00  0.00000000E+00  0.00000000E+00
  0.00000000E+00  0.00000000E+00  0.00000000E+00
