Li9 Sc1 Ti1 Mn2 V3 Cr1 Ni1 O18
1.0
0.007227 6.403909 6.357907
6.282339 0.000478 6.364168
4.187449 4.273193 0.000854
Li Sc Ti Mn V Cr Ni O
9 1 1 2 3 1 1 18
direct
0.989785 0.000550 0.508744 Li
0.988089 0.351602 0.010509 Li
0.989447 0.356246 0.467928 Li
0.997319 0.656638 0.990674 Li
0.339172 0.993641 0.500498 Li
0.321671 0.342414 0.996785 Li
0.323971 0.658812 0.511595 Li
0.688089 0.339606 0.476746 Li
0.678852 0.661884 0.005716 Li
0.005463 0.009292 0.979229 Sc
0.331792 0.660062 0.991024 Ti
0.670223 0.995204 0.509506 Mn
0.672541 0.660912 0.489564 Mn
0.319991 0.008804 0.040240 V
0.325560 0.337539 0.510295 V
0.670436 0.336621 0.998212 V
0.670211 0.000035 0.991500 Cr
0.995913 0.657511 0.526965 Ni
0.175223 0.145854 0.248328 O
0.195266 0.147805 0.758985 O
0.174157 0.507709 0.252985 O
0.166756 0.491457 0.739104 O
0.179595 0.834783 0.225371 O
0.180691 0.818744 0.771722 O
0.510198 0.176090 0.233757 O
0.487834 0.149863 0.782738 O
0.480345 0.498670 0.252816 O
0.498392 0.501131 0.766294 O
0.504355 0.849080 0.226416 O
0.498295 0.812976 0.759126 O
0.830513 0.180983 0.224218 O
0.829837 0.159371 0.762003 O
0.818663 0.514077 0.266999 O
0.825668 0.502489 0.741039 O
0.829973 0.841666 0.233458 O
0.835717 0.839877 0.748910 O
