Li9 Ti1 V2 Cr1 Co2 Cu3 O18
1.0
0.029044 6.285599 6.440401
6.170501 0.016687 6.454616
4.130577 4.216441 -0.005817
Li Ti V Cr Co Cu O
9 1 2 1 2 3 18
direct
0.989050 0.024953 0.976679 Li
0.976900 0.014968 0.528820 Li
0.986356 0.314611 0.518916 Li
0.995825 0.665593 0.993227 Li
0.328550 0.008067 0.500308 Li
0.677303 0.018816 0.984256 Li
0.684597 0.313292 0.513003 Li
0.673042 0.657620 0.010134 Li
0.681123 0.663294 0.453840 Li
0.332862 0.672178 0.501771 Ti
0.967295 0.678125 0.498763 V
0.339873 0.671488 0.985956 V
0.335539 0.001718 0.005895 Cr
0.989540 0.326691 0.037551 Co
0.672185 0.001678 0.495366 Co
0.342301 0.315840 0.019741 Cu
0.331204 0.324806 0.510624 Cu
0.675054 0.316634 0.008877 Cu
0.827745 0.174105 0.760761 O
0.184296 0.173934 0.229683 O
0.165417 0.177594 0.781127 O
0.157969 0.552740 0.230091 O
0.168229 0.520341 0.703009 O
0.180315 0.828481 0.249568 O
0.181235 0.819177 0.743340 O
0.487546 0.154479 0.294707 O
0.511619 0.127900 0.771949 O
0.487058 0.500602 0.240809 O
0.476532 0.497824 0.765971 O
0.487169 0.810168 0.265798 O
0.477770 0.815886 0.785454 O
0.834882 0.177283 0.237794 O
0.850302 0.495094 0.218981 O
0.856344 0.521866 0.703704 O
0.835703 0.833615 0.265708 O
0.851269 0.828541 0.707822 O
