Li9 Ti2 Mn3 V1 Cr1 Ni2 O18
1.0
-0.055338 6.418372 6.504535
6.223309 0.023796 6.424823
4.165691 4.242646 -0.000742
Li Ti Mn V Cr Ni O
9 2 3 1 1 2 18
direct
0.016880 0.017827 0.964234 Li
0.012949 0.011831 0.489538 Li
0.016630 0.317387 0.973498 Li
0.009613 0.303235 0.536673 Li
0.023153 0.661071 0.487808 Li
0.295356 0.012980 0.990784 Li
0.302096 0.011718 0.541113 Li
0.297392 0.316296 0.535015 Li
0.681037 0.320915 0.512215 Li
0.308761 0.315616 0.027771 Ti
0.675672 0.657801 0.498855 Ti
0.008524 0.669718 0.989284 Mn
0.327748 0.676099 0.002748 Mn
0.666829 0.668726 0.997876 Mn
0.662871 0.016019 0.493440 V
0.667626 0.007673 0.993748 Cr
0.331701 0.668632 0.495481 Ni
0.668583 0.331556 0.996673 Ni
0.174557 0.171685 0.237060 O
0.157192 0.167393 0.757265 O
0.187404 0.481379 0.230440 O
0.192991 0.483428 0.757046 O
0.179211 0.814540 0.248420 O
0.182154 0.819094 0.758974 O
0.506948 0.169207 0.233230 O
0.508744 0.161132 0.760974 O
0.505412 0.528440 0.206456 O
0.503645 0.524869 0.741704 O
0.526519 0.818356 0.240167 O
0.521234 0.851694 0.699882 O
0.803766 0.152166 0.282252 O
0.818229 0.160019 0.771072 O
0.827508 0.512240 0.270229 O
0.811882 0.518678 0.757059 O
0.808227 0.840199 0.266168 O
0.810954 0.840383 0.754847 O
