Li9 Sc2 Mn4 Cr1 Cu2 O18                 
   1.00000000000000     
     0.0453420000000000    6.3599470000000000    6.3840159999999999
     6.3201190000000000    0.0385830000000000    6.3903439999999998
     4.2363099999999996    4.2668410000000003    0.0029560000000000
   Li   Sc   Mn   Cr   Cu   O 
     9     2     4     1     2    18
Direct
  0.3491300000000024  0.0005230000000012  0.4972449999999995
  0.3409380000000013  0.3362630000000024  0.0057139999999976
  0.3518830000000008  0.3339369999999988  0.4680419999999970
  0.3506280000000004  0.6565900000000013  0.9843369999999965
  0.6487639999999999  0.0161889999999971  0.4891859999999966
  0.6587630000000004  0.3339220000000012  0.0046749999999989
  0.6539530000000013  0.3538679999999985  0.4986519999999999
  0.6578319999999991  0.6570460000000011  0.0143739999999966
  0.6450400000000016  0.6631259999999983  0.5219740000000002
  0.9941290000000009  0.0097489999999993  0.5077670000000012
  0.9951989999999995  0.6615480000000034  0.4998920000000027
  0.9983259999999987  0.0042180000000016  0.9982650000000035
  0.0041450000000012  0.3348250000000021  0.9945329999999970
  0.3519310000000004  0.6479009999999974  0.4926129999999986
  0.6576290000000000  0.0024489999999986  0.0214799999999968
  0.3534080000000017  0.9908599999999979  0.9844069999999974
  0.9893810000000016  0.3456070000000011  0.4934330000000031
  0.9996670000000023  0.6588289999999972  0.0056379999999976
  0.4818309999999997  0.8441729999999978  0.7789360000000016
  0.8575629999999990  0.4861039999999974  0.2216069999999988
  0.1692099999999996  0.1598329999999990  0.2128960000000006
  0.1623189999999965  0.1555729999999969  0.7821259999999981
  0.1442440000000005  0.5008989999999969  0.2559830000000005
  0.1827880000000022  0.5092720000000028  0.7076800000000034
  0.1779030000000006  0.8294700000000006  0.2645249999999990
  0.1518870000000021  0.8411550000000005  0.7668699999999973
  0.5081890000000016  0.1586890000000025  0.2303920000000019
  0.4986010000000007  0.1341109999999972  0.7974350000000001
  0.4921440000000032  0.5057290000000023  0.2678370000000001
  0.4869550000000018  0.5175819999999973  0.7224610000000027
  0.4846399999999988  0.8297120000000007  0.2555019999999999
  0.8497320000000030  0.1497839999999968  0.2381900000000030
  0.8380470000000031  0.1815190000000015  0.7315990000000028
  0.8462969999999999  0.4954099999999997  0.7692369999999968
  0.8303719999999970  0.8563240000000008  0.2415840000000031
  0.8365310000000008  0.8372079999999968  0.7729119999999980
 
  0.00000000E+00  0.00000000E+00  0.00000000E+00
  0.00000000E+00  0.00000000E+00  0.00000000E+00
  0.00000000E+00  0.00000000E+00  0.00000000E+00
  0.00000000E+00  0.00000000E+00  0.00000000E+00
  0.00000000E+00  0.00000000E+00  0.00000000E+00
  0.00000000E+00  0.00000000E+00  0.00000000E+00
  0.00000000E+00  0.00000000E+00  0.00000000E+00
  0.00000000E+00  0.00000000E+00  0.00000000E+00
  0.00000000E+00  0.00000000E+00  0.00000000E+00
  0.00000000E+00  0.00000000E+00  0.00000000E+00
  0.00000000E+00  0.00000000E+00  0.00000000E+00
  0.00000000E+00  0.00000000E+00  0.00000000E+00
  0.00000000E+00  0.00000000E+00  0.00000000E+00
  0.00000000E+00  0.00000000E+00  0.00000000E+00
  0.00000000E+00  0.00000000E+00  0.00000000E+00
  0.00000000E+00  0.00000000E+00  0.00000000E+00
  0.00000000E+00  0.00000000E+00  0.00000000E+00
  0.00000000E+00  0.00000000E+00  0.00000000E+00
  0.00000000E+00  0.00000000E+00  0.00000000E+00
  0.00000000E+00  0.00000000E+00  0.00000000E+00
  0.00000000E+00  0.00000000E+00  0.00000000E+00
  0.00000000E+00  0.00000000E+00  0.00000000E+00
  0.00000000E+00  0.00000000E+00  0.00000000E+00
  0.00000000E+00  0.00000000E+00  0.00000000E+00
  0.00000000E+00  0.00000000E+00  0.00000000E+00
  0.00000000E+00  0.00000000E+00  0.00000000E+00
  0.00000000E+00  0.00000000E+00  0.00000000E+00
  0.00000000E+00  0.00000000E+00  0.00000000E+00
  0.00000000E+00  0.00000000E+00  0.00000000E+00
  0.00000000E+00  0.00000000E+00  0.00000000E+00
  0.00000000E+00  0.00000000E+00  0.00000000E+00
  0.00000000E+00  0.00000000E+00  0.00000000E+00
  0.00000000E+00  0.00000000E+00  0.00000000E+00
  0.00000000E+00  0.00000000E+00  0.00000000E+00
  0.00000000E+00  0.00000000E+00  0.00000000E+00
  0.00000000E+00  0.00000000E+00  0.00000000E+00
