Li9 Sc1 Mn1 V2 Fe1 Cu3 Ni1 O18
1.0
-0.088703 6.265391 6.266722
6.626198 -0.037557 6.216689
4.375678 4.102619 0.016044
Li Sc Mn V Fe Cu Ni O
9 1 1 2 1 3 1 18
direct
0.979644 0.353583 0.975531 Li
0.977919 0.346482 0.536737 Li
0.364816 0.332538 0.979567 Li
0.361844 0.635158 0.996390 Li
0.370928 0.634780 0.490625 Li
0.673332 0.998079 0.998840 Li
0.666773 0.351448 0.970296 Li
0.638727 0.356477 0.519178 Li
0.667564 0.629757 0.997886 Li
0.991818 0.015774 0.507599 Sc
0.335157 0.999804 0.504641 Mn
0.027094 0.627225 0.993293 V
0.665110 0.015599 0.475206 V
0.337404 0.987007 0.016996 Fe
0.995683 0.009261 0.990249 Cu
0.343985 0.340223 0.485463 Cu
0.656461 0.651512 0.523851 Cu
0.987938 0.672672 0.502699 Ni
0.487081 0.494453 0.268586 O
0.504420 0.497527 0.749184 O
0.195969 0.145829 0.243374 O
0.204293 0.165764 0.708683 O
0.143435 0.519756 0.239534 O
0.154333 0.514491 0.768457 O
0.145378 0.862399 0.236062 O
0.125199 0.828122 0.801114 O
0.528657 0.148678 0.252538 O
0.523032 0.136027 0.726980 O
0.473271 0.846439 0.291633 O
0.486403 0.859733 0.752166 O
0.822453 0.153545 0.261861 O
0.850188 0.159521 0.744816 O
0.853154 0.526188 0.199347 O
0.833151 0.507151 0.735508 O
0.791524 0.840881 0.317433 O
0.835862 0.836114 0.737679 O
