Li2 Mn2 O4
1.0
4.247577 -0.000048 -0.000314
0.000314 -0.000160 -4.245309
2.123893 4.339476 -2.122637
Li Mn O
2 2 4
direct
0.508147 0.507996 0.014144 Li
0.761417 0.253960 0.507426 Li
0.000123 0.000337 0.014575 Mn
0.254068 0.761699 0.506822 Mn
0.234325 0.234159 0.546915 O
0.487998 0.995382 0.039416 O
0.781547 0.781544 0.467314 O
0.020443 0.527688 0.974836 O
