Li9 Sc1 Ti1 Mn3 V1 Cu2 Ni1 O18          
   1.00000000000000     
    -0.0059780000000000    6.1642979999999996    6.4483889999999997
     6.3000010000000000    0.0013130000000000    6.4406280000000002
     4.1960980000000001    4.1005589999999996    0.0045240000000000
   Li   Sc   Ti   Mn   V    Cu   Ni   O 
     9     1     1     3     1     2     1    18
Direct
  0.0051070000000024  0.9934620000000010  0.9967159999999993
  0.9918809999999993  0.3480840000000001  0.9854240000000019
  0.0063960000000023  0.6573110000000000  0.5008189999999999
  0.3433399999999978  0.3449949999999973  0.4809559999999991
  0.3405539999999974  0.6561179999999993  0.0127629999999996
  0.3392219999999995  0.6653430000000000  0.4919840000000022
  0.6647770000000008  0.3509559999999965  0.9963899999999981
  0.6683230000000009  0.6567190000000025  0.0041080000000022
  0.6654910000000029  0.6618190000000013  0.5062330000000017
  0.3255580000000009  0.9948699999999988  0.0092709999999983
  0.6710009999999968  0.9937249999999977  0.4752620000000007
  0.9969779999999986  0.9882009999999966  0.5124029999999991
  0.0020290000000003  0.3388149999999968  0.5046729999999968
  0.6649260000000012  0.3486819999999966  0.4838939999999994
  0.3283160000000009  0.3505269999999996  0.9803659999999965
  0.9897279999999995  0.6697879999999969  0.0052560000000028
  0.3300399999999968  0.9905010000000019  0.5125609999999980
  0.6585559999999973  0.9962050000000033  0.0101939999999985
  0.1754049999999978  0.1786260000000013  0.2488269999999986
  0.1613499999999988  0.1620970000000028  0.7367849999999976
  0.1725330000000014  0.4752980000000022  0.2597659999999991
  0.1848310000000026  0.4767089999999996  0.7714050000000015
  0.1586470000000020  0.8469929999999977  0.2601459999999989
  0.1331220000000002  0.8281240000000025  0.7656380000000027
  0.5140549999999990  0.1725449999999995  0.2345479999999966
  0.4924419999999969  0.1684240000000017  0.7646039999999985
  0.5170460000000006  0.4976989999999972  0.2537400000000005
  0.4947760000000017  0.4796720000000008  0.7609800000000035
  0.4920350000000013  0.8474130000000031  0.2588519999999974
  0.5030610000000024  0.8517569999999992  0.7346689999999967
  0.8200739999999982  0.1556449999999998  0.2921029999999973
  0.8466680000000011  0.1810040000000015  0.7022049999999993
  0.8548720000000003  0.4972929999999991  0.2530659999999969
  0.8560409999999976  0.4811570000000032  0.7255690000000001
  0.8222250000000031  0.8493459999999970  0.2579550000000026
  0.8085930000000019  0.8440760000000012  0.7498689999999968
 
  0.00000000E+00  0.00000000E+00  0.00000000E+00
  0.00000000E+00  0.00000000E+00  0.00000000E+00
  0.00000000E+00  0.00000000E+00  0.00000000E+00
  0.00000000E+00  0.00000000E+00  0.00000000E+00
  0.00000000E+00  0.00000000E+00  0.00000000E+00
  0.00000000E+00  0.00000000E+00  0.00000000E+00
  0.00000000E+00  0.00000000E+00  0.00000000E+00
  0.00000000E+00  0.00000000E+00  0.00000000E+00
  0.00000000E+00  0.00000000E+00  0.00000000E+00
  0.00000000E+00  0.00000000E+00  0.00000000E+00
  0.00000000E+00  0.00000000E+00  0.00000000E+00
  0.00000000E+00  0.00000000E+00  0.00000000E+00
  0.00000000E+00  0.00000000E+00  0.00000000E+00
  0.00000000E+00  0.00000000E+00  0.00000000E+00
  0.00000000E+00  0.00000000E+00  0.00000000E+00
  0.00000000E+00  0.00000000E+00  0.00000000E+00
  0.00000000E+00  0.00000000E+00  0.00000000E+00
  0.00000000E+00  0.00000000E+00  0.00000000E+00
  0.00000000E+00  0.00000000E+00  0.00000000E+00
  0.00000000E+00  0.00000000E+00  0.00000000E+00
  0.00000000E+00  0.00000000E+00  0.00000000E+00
  0.00000000E+00  0.00000000E+00  0.00000000E+00
  0.00000000E+00  0.00000000E+00  0.00000000E+00
  0.00000000E+00  0.00000000E+00  0.00000000E+00
  0.00000000E+00  0.00000000E+00  0.00000000E+00
  0.00000000E+00  0.00000000E+00  0.00000000E+00
  0.00000000E+00  0.00000000E+00  0.00000000E+00
  0.00000000E+00  0.00000000E+00  0.00000000E+00
  0.00000000E+00  0.00000000E+00  0.00000000E+00
  0.00000000E+00  0.00000000E+00  0.00000000E+00
  0.00000000E+00  0.00000000E+00  0.00000000E+00
  0.00000000E+00  0.00000000E+00  0.00000000E+00
  0.00000000E+00  0.00000000E+00  0.00000000E+00
  0.00000000E+00  0.00000000E+00  0.00000000E+00
  0.00000000E+00  0.00000000E+00  0.00000000E+00
  0.00000000E+00  0.00000000E+00  0.00000000E+00
