Li9 Mn2 Co3 Cu1 Ni3 O18                 
   1.00000000000000     
     0.0467050000000000    6.2063370000000004    6.1612289999999996
     6.1810929999999997    0.0261530000000000    6.1817739999999999
     4.1406799999999997    4.1711549999999997   -0.0024190000000000
   Li   Mn   Co   Cu   Ni   O 
     9     2     3     1     3    18
Direct
  0.9968250000000012  0.3431280000000001  0.4997040000000013
  0.0060379999999967  0.6535319999999984  0.0072830000000010
  0.0025180000000020  0.6567259999999990  0.5092280000000002
  0.3280079999999970  0.0013739999999984  0.0069230000000005
  0.3350349999999978  0.9962919999999968  0.4959690000000023
  0.3290879999999987  0.3425289999999990  0.4948189999999997
  0.3381449999999973  0.6626100000000008  0.5000720000000030
  0.6649869999999964  0.3484520000000018  0.9921810000000022
  0.6738119999999981  0.6594550000000012  0.4949250000000021
  0.9984430000000017  0.0027290000000022  0.0021920000000009
  0.6607559999999992  0.9974630000000033  0.0071530000000024
  0.3267060000000015  0.3378859999999975  0.0019559999999998
  0.3465660000000028  0.6604329999999976  0.9993639999999999
  0.6538350000000008  0.9971770000000006  0.5065430000000006
  0.0123400000000018  0.9938140000000004  0.4976449999999986
  0.0011229999999998  0.3381389999999982  0.9953640000000021
  0.6646900000000002  0.3415620000000033  0.4923470000000023
  0.6720690000000005  0.6661829999999966  0.9949749999999966
  0.8504020000000025  0.4937159999999992  0.7642200000000017
  0.1580689999999976  0.1870669999999990  0.2249750000000006
  0.1394689999999983  0.1661700000000010  0.7868879999999976
  0.1929190000000034  0.4880899999999997  0.2212540000000018
  0.1861439999999988  0.4813380000000009  0.7730680000000021
  0.1453369999999978  0.8446390000000008  0.2469469999999987
  0.1716570000000033  0.8360339999999979  0.7863309999999970
  0.4973990000000015  0.1615809999999982  0.2266600000000025
  0.5069779999999966  0.1703400000000030  0.7688789999999983
  0.4893130000000028  0.5154670000000010  0.2362839999999977
  0.4883769999999998  0.4908849999999987  0.7651929999999965
  0.5152560000000008  0.8414169999999999  0.2274269999999987
  0.5060149999999979  0.8344099999999983  0.7452910000000017
  0.8160669999999968  0.1556830000000033  0.2513459999999981
  0.8415779999999984  0.1421190000000010  0.7603470000000030
  0.8370919999999984  0.4866859999999988  0.2388789999999972
  0.8257929999999973  0.8525410000000022  0.2250480000000010
  0.8211510000000004  0.8523319999999970  0.7523219999999995
 
  0.00000000E+00  0.00000000E+00  0.00000000E+00
  0.00000000E+00  0.00000000E+00  0.00000000E+00
  0.00000000E+00  0.00000000E+00  0.00000000E+00
  0.00000000E+00  0.00000000E+00  0.00000000E+00
  0.00000000E+00  0.00000000E+00  0.00000000E+00
  0.00000000E+00  0.00000000E+00  0.00000000E+00
  0.00000000E+00  0.00000000E+00  0.00000000E+00
  0.00000000E+00  0.00000000E+00  0.00000000E+00
  0.00000000E+00  0.00000000E+00  0.00000000E+00
  0.00000000E+00  0.00000000E+00  0.00000000E+00
  0.00000000E+00  0.00000000E+00  0.00000000E+00
  0.00000000E+00  0.00000000E+00  0.00000000E+00
  0.00000000E+00  0.00000000E+00  0.00000000E+00
  0.00000000E+00  0.00000000E+00  0.00000000E+00
  0.00000000E+00  0.00000000E+00  0.00000000E+00
  0.00000000E+00  0.00000000E+00  0.00000000E+00
  0.00000000E+00  0.00000000E+00  0.00000000E+00
  0.00000000E+00  0.00000000E+00  0.00000000E+00
  0.00000000E+00  0.00000000E+00  0.00000000E+00
  0.00000000E+00  0.00000000E+00  0.00000000E+00
  0.00000000E+00  0.00000000E+00  0.00000000E+00
  0.00000000E+00  0.00000000E+00  0.00000000E+00
  0.00000000E+00  0.00000000E+00  0.00000000E+00
  0.00000000E+00  0.00000000E+00  0.00000000E+00
  0.00000000E+00  0.00000000E+00  0.00000000E+00
  0.00000000E+00  0.00000000E+00  0.00000000E+00
  0.00000000E+00  0.00000000E+00  0.00000000E+00
  0.00000000E+00  0.00000000E+00  0.00000000E+00
  0.00000000E+00  0.00000000E+00  0.00000000E+00
  0.00000000E+00  0.00000000E+00  0.00000000E+00
  0.00000000E+00  0.00000000E+00  0.00000000E+00
  0.00000000E+00  0.00000000E+00  0.00000000E+00
  0.00000000E+00  0.00000000E+00  0.00000000E+00
  0.00000000E+00  0.00000000E+00  0.00000000E+00
  0.00000000E+00  0.00000000E+00  0.00000000E+00
  0.00000000E+00  0.00000000E+00  0.00000000E+00
