Li5 Ti10 O15
1.0
0.020185 6.342858 6.389404
10.530886 2.208553 12.719589
6.322446 6.363162 8.519589
Li Ti O
5 10 15
direct
0.310467 0.993290 0.020027 Li
0.141915 0.607703 0.003404 Li
0.076978 0.776094 0.010516 Li
0.631277 0.206546 0.975641 Li
0.448254 0.600456 0.008798 Li
0.016720 0.004522 0.982208 Ti
0.914709 0.189363 0.027913 Ti
0.813670 0.368171 0.061326 Ti
0.841961 0.624394 0.947175 Ti
0.757108 0.818063 0.962900 Ti
0.255376 0.182107 0.031407 Ti
0.213577 0.425476 0.965706 Ti
0.629256 0.981366 0.047109 Ti
0.528284 0.392533 0.012862 Ti
0.428524 0.829860 0.941655 Ti
0.866073 0.891156 0.506389 O
0.805074 0.117345 0.481018 O
0.732435 0.301148 0.501301 O
0.647195 0.501645 0.509995 O
0.600917 0.702028 0.501494 O
0.212667 0.900548 0.504904 O
0.128360 0.102822 0.500349 O
0.065946 0.293585 0.506202 O
0.004128 0.501515 0.501950 O
0.932748 0.693860 0.505760 O
0.575977 0.916485 0.455839 O
0.418107 0.066732 0.554200 O
0.397778 0.299073 0.504182 O
0.340073 0.509421 0.484696 O
0.256602 0.700382 0.493716 O
