Li3 Ti3 O6                              
   1.00000000000000     
     3.9373999999999998   -0.0001870000000000   -0.0000340000000000
     0.0000350000000000   -0.0006130000000000   -3.8821129999999999
    -0.0002910000000000    6.0274700000000001   -1.9400919999999999
   Li   Ti   O 
     3     3     6
Direct
  0.0006470000000007  0.9517809999999969  0.0056020000000032
  0.4784580000000034  0.7956989999999990  0.3186910000000012
  0.0005379999999988  0.6390249999999966  0.6316530000000000
  0.4780749999999969  0.4789189999999977  0.9521269999999973
  0.0005060000000014  0.3181480000000008  0.3187819999999988
  0.4782610000000034  0.1572820000000021  0.6401109999999974
  0.4779290000000032  0.3177840000000032  0.3186230000000023
  0.4781400000000033  0.0005329999999972  0.9539559999999980
  0.0008100000000013  0.1601739999999978  0.6347239999999985
  0.0002939999999967  0.7952500000000029  0.3187939999999969
  0.4781729999999982  0.6357250000000008  0.6382359999999991
  0.0005480000000020  0.4761880000000005  0.0026610000000034
 
  0.00000000E+00  0.00000000E+00  0.00000000E+00
  0.00000000E+00  0.00000000E+00  0.00000000E+00
  0.00000000E+00  0.00000000E+00  0.00000000E+00
  0.00000000E+00  0.00000000E+00  0.00000000E+00
  0.00000000E+00  0.00000000E+00  0.00000000E+00
  0.00000000E+00  0.00000000E+00  0.00000000E+00
  0.00000000E+00  0.00000000E+00  0.00000000E+00
  0.00000000E+00  0.00000000E+00  0.00000000E+00
  0.00000000E+00  0.00000000E+00  0.00000000E+00
  0.00000000E+00  0.00000000E+00  0.00000000E+00
  0.00000000E+00  0.00000000E+00  0.00000000E+00
  0.00000000E+00  0.00000000E+00  0.00000000E+00
