Li4 Mn2 Ni2 O8
1.0
0.000198 1.980989 1.979310
5.942519 6.001706 -4.016562
-3.969027 2.008779 -2.007426
Li Mn Ni O
4 2 2 8
direct
0.360263 0.239992 0.840262 Li
0.123151 0.713642 0.581892 Li
0.839186 0.239869 0.360625 Li
0.598343 0.726239 0.137745 Li
0.000707 0.000189 0.958970 Mn
0.720085 0.479758 0.720806 Mn
0.481122 0.959034 0.480239 Ni
0.239631 0.480868 0.239545 Ni
0.056749 0.848577 0.282362 O
0.186406 0.586456 0.876854 O
0.534405 0.853517 0.802834 O
0.905804 0.108650 0.674257 O
0.294160 0.372280 0.558677 O
0.664172 0.591327 0.437319 O
0.426680 0.107610 0.161208 O
0.774800 0.371335 0.045537 O
