Li9 Ti2 Mn2 V1 Cr1 Fe1 Cu2 O18          
   1.00000000000000     
     0.0077020000000000    6.4822860000000002    6.2810969999999999
     6.2730280000000000    0.0351510000000000    6.2545989999999998
     4.1817380000000002    4.3033820000000000    0.0233540000000000
   Li   Ti   Mn   V    Cr   Fe   Cu   O 
     9     2     2     1     1     1     2    18
Direct
  0.0176870000000022  0.3336139999999972  0.9831739999999982
  0.0155680000000018  0.3309709999999981  0.4869630000000029
  0.0211079999999981  0.6476660000000010  0.9915889999999976
  0.3247799999999970  0.0105950000000021  0.9932179999999988
  0.3080349999999967  0.3447669999999974  0.0022579999999977
  0.3175719999999984  0.3380629999999982  0.5000399999999985
  0.3185939999999974  0.6632040000000003  0.5134720000000002
  0.6686260000000033  0.3317430000000030  0.0058969999999974
  0.6652449999999988  0.6622630000000029  0.5087690000000009
  0.6531999999999982  0.3497339999999980  0.5254040000000018
  0.6700620000000015  0.6499680000000012  0.0044049999999984
  0.0148989999999998  0.6521260000000026  0.4931880000000035
  0.3301200000000009  0.0032660000000035  0.4948619999999977
  0.6678440000000023  0.9964069999999978  0.0136790000000033
  0.6640429999999995  0.9993079999999992  0.5109879999999976
  0.0165700000000015  0.0102460000000022  0.4659710000000032
  0.0076419999999970  0.0047580000000025  0.9896639999999977
  0.3308869999999970  0.6613520000000008  0.0023229999999970
  0.1601220000000012  0.1695490000000035  0.2394559999999970
  0.1718559999999982  0.1494840000000011  0.7360270000000000
  0.1740729999999999  0.5099480000000014  0.2247229999999973
  0.1513139999999993  0.5124089999999981  0.7196369999999987
  0.1655400000000000  0.8302279999999982  0.2574309999999969
  0.1602829999999997  0.8564149999999984  0.7142640000000000
  0.5051419999999993  0.1427389999999988  0.2865620000000035
  0.5192630000000023  0.1609100000000012  0.7516520000000000
  0.5216580000000022  0.4924109999999970  0.2613669999999999
  0.5030829999999966  0.4904039999999981  0.7540419999999983
  0.5100649999999973  0.8402120000000011  0.2506709999999970
  0.5093570000000014  0.8196820000000002  0.7798090000000002
  0.8250730000000033  0.1589079999999967  0.2803359999999984
  0.8200980000000015  0.1716150000000027  0.7354989999999972
  0.8094400000000022  0.5056489999999982  0.2541000000000011
  0.8238619999999983  0.5147580000000005  0.7615339999999975
  0.8378719999999973  0.8468840000000029  0.2513059999999996
  0.8194200000000009  0.8377460000000028  0.7557219999999987
 
  0.00000000E+00  0.00000000E+00  0.00000000E+00
  0.00000000E+00  0.00000000E+00  0.00000000E+00
  0.00000000E+00  0.00000000E+00  0.00000000E+00
  0.00000000E+00  0.00000000E+00  0.00000000E+00
  0.00000000E+00  0.00000000E+00  0.00000000E+00
  0.00000000E+00  0.00000000E+00  0.00000000E+00
  0.00000000E+00  0.00000000E+00  0.00000000E+00
  0.00000000E+00  0.00000000E+00  0.00000000E+00
  0.00000000E+00  0.00000000E+00  0.00000000E+00
  0.00000000E+00  0.00000000E+00  0.00000000E+00
  0.00000000E+00  0.00000000E+00  0.00000000E+00
  0.00000000E+00  0.00000000E+00  0.00000000E+00
  0.00000000E+00  0.00000000E+00  0.00000000E+00
  0.00000000E+00  0.00000000E+00  0.00000000E+00
  0.00000000E+00  0.00000000E+00  0.00000000E+00
  0.00000000E+00  0.00000000E+00  0.00000000E+00
  0.00000000E+00  0.00000000E+00  0.00000000E+00
  0.00000000E+00  0.00000000E+00  0.00000000E+00
  0.00000000E+00  0.00000000E+00  0.00000000E+00
  0.00000000E+00  0.00000000E+00  0.00000000E+00
  0.00000000E+00  0.00000000E+00  0.00000000E+00
  0.00000000E+00  0.00000000E+00  0.00000000E+00
  0.00000000E+00  0.00000000E+00  0.00000000E+00
  0.00000000E+00  0.00000000E+00  0.00000000E+00
  0.00000000E+00  0.00000000E+00  0.00000000E+00
  0.00000000E+00  0.00000000E+00  0.00000000E+00
  0.00000000E+00  0.00000000E+00  0.00000000E+00
  0.00000000E+00  0.00000000E+00  0.00000000E+00
  0.00000000E+00  0.00000000E+00  0.00000000E+00
  0.00000000E+00  0.00000000E+00  0.00000000E+00
  0.00000000E+00  0.00000000E+00  0.00000000E+00
  0.00000000E+00  0.00000000E+00  0.00000000E+00
  0.00000000E+00  0.00000000E+00  0.00000000E+00
  0.00000000E+00  0.00000000E+00  0.00000000E+00
  0.00000000E+00  0.00000000E+00  0.00000000E+00
  0.00000000E+00  0.00000000E+00  0.00000000E+00
