Li4 Ti2 Ni2 O8
1.0
0.000525 2.041903 2.041954
18.979177 -0.000870 -0.000818
0.000114 2.041893 -2.041944
Li Ti Ni O
4 2 2 8
direct
0.999022 0.028083 0.000015 Li
0.500184 0.147452 0.500107 Li
0.000420 0.240627 0.000282 Li
0.500979 0.352226 0.500755 Li
0.999918 0.744776 0.000405 Ti
0.499854 0.887945 0.500102 Ti
0.000708 0.483217 0.000747 Ni
0.500305 0.611829 0.500544 Ni
0.499903 0.753698 0.500414 O
0.999877 0.863267 0.000152 O
0.500640 0.510032 0.500708 O
0.000226 0.638747 0.000483 O
0.500423 0.250294 0.500289 O
0.000908 0.383637 0.000767 O
0.499756 0.979569 0.500060 O
0.000288 0.124097 0.000158 O
