Li9 Ti2 Mn1 Co1 Cu5 O18
1.0
0.058609 6.081639 6.364507
6.366727 0.061745 6.359247
4.275812 4.081409 0.011224
Li Ti Mn Co Cu O
9 2 1 1 5 18
direct
0.991128 0.000624 0.982779 Li
0.004573 0.986388 0.511753 Li
0.007320 0.327306 0.497970 Li
0.339286 0.015631 0.488667 Li
0.335975 0.326152 0.036190 Li
0.339568 0.335549 0.476984 Li
0.322722 0.661966 0.014721 Li
0.656955 0.020375 0.020793 Li
0.657615 0.320714 0.010262 Li
0.005260 0.316068 0.002904 Ti
0.664285 0.320117 0.529503 Ti
0.340034 0.000153 -0.000187 Mn
0.002409 0.659199 0.497004 Co
0.005364 0.660313 -0.000100 Cu
0.331094 0.664685 0.505171 Cu
0.664197 0.008077 0.488546 Cu
0.667159 0.672113 0.992848 Cu
0.666825 0.677753 0.486690 Cu
0.493256 0.854909 0.766510 O
0.848346 0.812056 0.250030 O
0.841190 0.813788 0.721530 O
0.171527 0.160058 0.225976 O
0.156745 0.156543 0.789568 O
0.147952 0.507637 0.269063 O
0.137071 0.492899 0.766144 O
0.162568 0.801860 0.294436 O
0.173005 0.799823 0.746440 O
0.502856 0.167837 0.265293 O
0.500982 0.193627 0.742406 O
0.497995 0.526123 0.262917 O
0.512981 0.518661 0.703873 O
0.522730 0.845317 0.209045 O
0.823654 0.191266 0.249700 O
0.829239 0.178189 0.735391 O
0.842947 0.489228 0.222468 O
0.833185 0.516997 0.736712 O
