Li9 Ti2 Fe5 Co1 Cu1 O18                 
   1.00000000000000     
    -0.0164270000000000    6.3583109999999996    6.1388449999999999
     6.3938949999999997   -0.0112860000000000    6.1332789999999999
     4.2502129999999996    4.2230999999999996    0.0049060000000000
   Li   Ti   Fe   Co   Cu   O 
     9     2     5     1     1    18
Direct
  0.0039990000000003  0.9984269999999995  0.9912610000000015
  0.9948090000000036  0.0067120000000003  0.5011920000000032
  0.9955410000000029  0.3341080000000005  0.0095519999999993
  0.0087660000000014  0.3255399999999966  0.4822520000000026
  0.3315580000000011  0.3313750000000013  0.9996989999999997
  0.3308650000000029  0.6663599999999974  0.5176749999999970
  0.6793800000000019  0.9890609999999995  0.0093389999999971
  0.6684020000000004  0.0043590000000009  0.4924859999999995
  0.6721580000000031  0.6639529999999993  0.4929920000000010
  0.0016189999999980  0.6894270000000020  0.4769330000000025
  0.6782409999999999  0.3229120000000023  0.9860380000000006
  0.3281950000000009  0.0031359999999978  0.0110030000000023
  0.3315259999999967  0.9966209999999975  0.4963589999999982
  0.3230730000000008  0.3340990000000019  0.5149499999999989
  0.6687980000000024  0.3291790000000034  0.5037030000000016
  0.6677060000000026  0.6734539999999996  0.0004199999999983
  0.0049580000000020  0.6619760000000028  0.9970050000000015
  0.3371769999999970  0.6627190000000027  0.9902540000000002
  0.1799389999999974  0.1503209999999982  0.2590870000000010
  0.1821330000000003  0.1535640000000029  0.7462179999999989
  0.1666209999999992  0.5041519999999977  0.2740590000000012
  0.1556909999999974  0.5073149999999984  0.7313609999999997
  0.1520829999999975  0.8426299999999998  0.2694910000000021
  0.1844490000000008  0.8213160000000030  0.7590489999999974
  0.4959909999999965  0.1762859999999975  0.2563469999999981
  0.4878819999999990  0.1785899999999998  0.7372190000000032
  0.5031970000000001  0.4971839999999972  0.2380250000000004
  0.5218649999999982  0.4749550000000013  0.7511160000000032
  0.4975129999999979  0.8420940000000030  0.2371979999999994
  0.4882449999999992  0.8340510000000023  0.7743010000000012
  0.8104960000000005  0.1895340000000019  0.2425410000000028
  0.8206869999999995  0.1780839999999984  0.7559449999999970
  0.8212919999999997  0.5061380000000000  0.2412199999999984
  0.8170300000000026  0.5083440000000010  0.7646640000000033
  0.8535579999999996  0.8157470000000018  0.2542720000000003
  0.8345559999999992  0.8262730000000005  0.7347719999999995
 
  0.00000000E+00  0.00000000E+00  0.00000000E+00
  0.00000000E+00  0.00000000E+00  0.00000000E+00
  0.00000000E+00  0.00000000E+00  0.00000000E+00
  0.00000000E+00  0.00000000E+00  0.00000000E+00
  0.00000000E+00  0.00000000E+00  0.00000000E+00
  0.00000000E+00  0.00000000E+00  0.00000000E+00
  0.00000000E+00  0.00000000E+00  0.00000000E+00
  0.00000000E+00  0.00000000E+00  0.00000000E+00
  0.00000000E+00  0.00000000E+00  0.00000000E+00
  0.00000000E+00  0.00000000E+00  0.00000000E+00
  0.00000000E+00  0.00000000E+00  0.00000000E+00
  0.00000000E+00  0.00000000E+00  0.00000000E+00
  0.00000000E+00  0.00000000E+00  0.00000000E+00
  0.00000000E+00  0.00000000E+00  0.00000000E+00
  0.00000000E+00  0.00000000E+00  0.00000000E+00
  0.00000000E+00  0.00000000E+00  0.00000000E+00
  0.00000000E+00  0.00000000E+00  0.00000000E+00
  0.00000000E+00  0.00000000E+00  0.00000000E+00
  0.00000000E+00  0.00000000E+00  0.00000000E+00
  0.00000000E+00  0.00000000E+00  0.00000000E+00
  0.00000000E+00  0.00000000E+00  0.00000000E+00
  0.00000000E+00  0.00000000E+00  0.00000000E+00
  0.00000000E+00  0.00000000E+00  0.00000000E+00
  0.00000000E+00  0.00000000E+00  0.00000000E+00
  0.00000000E+00  0.00000000E+00  0.00000000E+00
  0.00000000E+00  0.00000000E+00  0.00000000E+00
  0.00000000E+00  0.00000000E+00  0.00000000E+00
  0.00000000E+00  0.00000000E+00  0.00000000E+00
  0.00000000E+00  0.00000000E+00  0.00000000E+00
  0.00000000E+00  0.00000000E+00  0.00000000E+00
  0.00000000E+00  0.00000000E+00  0.00000000E+00
  0.00000000E+00  0.00000000E+00  0.00000000E+00
  0.00000000E+00  0.00000000E+00  0.00000000E+00
  0.00000000E+00  0.00000000E+00  0.00000000E+00
  0.00000000E+00  0.00000000E+00  0.00000000E+00
  0.00000000E+00  0.00000000E+00  0.00000000E+00
