Li9 Ti1 Fe2 Co2 Ni4 O18                 
   1.00000000000000     
    -0.0021060000000000    6.2154590000000001    6.1285509999999999
     6.2745769999999998   -0.0196320000000000    6.1460749999999997
     4.1647049999999997    4.1369540000000002    0.0053430000000000
   Li   Ti   Fe   Co   Ni   O 
     9     1     2     2     4    18
Direct
  0.0133709999999994  0.3238309999999984  0.0007779999999968
  0.0075799999999973  0.3316719999999975  0.4936939999999979
  0.3380780000000030  0.0195310000000006  0.4811890000000005
  0.3236720000000020  0.3270759999999981  0.0102880000000027
  0.3370919999999984  0.3167959999999965  0.5021229999999974
  0.3259600000000020  0.6655310000000014  0.5060059999999993
  0.6639460000000028  0.0092739999999978  0.9871520000000018
  0.6573279999999997  0.0103259999999992  0.5054110000000023
  0.6695509999999985  0.6703869999999981  0.9911480000000026
  0.6543429999999972  0.6872329999999991  0.4759379999999993
  0.3291940000000011  0.6637059999999977  0.0179210000000012
  0.6705159999999992  0.3278770000000009  0.0008470000000003
  0.9998030000000000  0.6596260000000029  0.0012720000000002
  0.6554649999999995  0.3210550000000012  0.5116849999999999
  0.0029189999999986  0.0051190000000005  0.9960499999999968
  0.0049259999999975  0.9990870000000029  0.4983659999999972
  0.9981879999999990  0.6565680000000000  0.5178539999999998
  0.3400970000000001  0.0036830000000023  0.9982100000000003
  0.1762990000000002  0.1486179999999990  0.2482550000000003
  0.1794140000000013  0.1527799999999999  0.7667860000000033
  0.1563069999999982  0.5132499999999993  0.2378980000000013
  0.1415310000000005  0.5169849999999983  0.7836309999999997
  0.1704269999999966  0.8289990000000032  0.2438509999999994
  0.1491219999999984  0.8163270000000011  0.7871409999999983
  0.5215239999999994  0.1825299999999999  0.2185910000000035
  0.5057400000000030  0.1766140000000007  0.7384630000000030
  0.5029480000000035  0.4929569999999970  0.2382899999999992
  0.5082450000000023  0.5075039999999973  0.7391160000000028
  0.5030080000000012  0.8340350000000001  0.2526900000000012
  0.4995410000000007  0.8274449999999973  0.7430949999999967
  0.8294100000000029  0.1736289999999983  0.2508979999999994
  0.8308540000000022  0.1768399999999986  0.7440810000000013
  0.8228909999999985  0.5193450000000013  0.2552060000000012
  0.8127509999999987  0.4994969999999981  0.7517100000000028
  0.8431070000000034  0.8137820000000033  0.2480279999999979
  0.8548509999999965  0.8204830000000030  0.7563389999999970
 
  0.00000000E+00  0.00000000E+00  0.00000000E+00
  0.00000000E+00  0.00000000E+00  0.00000000E+00
  0.00000000E+00  0.00000000E+00  0.00000000E+00
  0.00000000E+00  0.00000000E+00  0.00000000E+00
  0.00000000E+00  0.00000000E+00  0.00000000E+00
  0.00000000E+00  0.00000000E+00  0.00000000E+00
  0.00000000E+00  0.00000000E+00  0.00000000E+00
  0.00000000E+00  0.00000000E+00  0.00000000E+00
  0.00000000E+00  0.00000000E+00  0.00000000E+00
  0.00000000E+00  0.00000000E+00  0.00000000E+00
  0.00000000E+00  0.00000000E+00  0.00000000E+00
  0.00000000E+00  0.00000000E+00  0.00000000E+00
  0.00000000E+00  0.00000000E+00  0.00000000E+00
  0.00000000E+00  0.00000000E+00  0.00000000E+00
  0.00000000E+00  0.00000000E+00  0.00000000E+00
  0.00000000E+00  0.00000000E+00  0.00000000E+00
  0.00000000E+00  0.00000000E+00  0.00000000E+00
  0.00000000E+00  0.00000000E+00  0.00000000E+00
  0.00000000E+00  0.00000000E+00  0.00000000E+00
  0.00000000E+00  0.00000000E+00  0.00000000E+00
  0.00000000E+00  0.00000000E+00  0.00000000E+00
  0.00000000E+00  0.00000000E+00  0.00000000E+00
  0.00000000E+00  0.00000000E+00  0.00000000E+00
  0.00000000E+00  0.00000000E+00  0.00000000E+00
  0.00000000E+00  0.00000000E+00  0.00000000E+00
  0.00000000E+00  0.00000000E+00  0.00000000E+00
  0.00000000E+00  0.00000000E+00  0.00000000E+00
  0.00000000E+00  0.00000000E+00  0.00000000E+00
  0.00000000E+00  0.00000000E+00  0.00000000E+00
  0.00000000E+00  0.00000000E+00  0.00000000E+00
  0.00000000E+00  0.00000000E+00  0.00000000E+00
  0.00000000E+00  0.00000000E+00  0.00000000E+00
  0.00000000E+00  0.00000000E+00  0.00000000E+00
  0.00000000E+00  0.00000000E+00  0.00000000E+00
  0.00000000E+00  0.00000000E+00  0.00000000E+00
  0.00000000E+00  0.00000000E+00  0.00000000E+00
