Li9 Sc1 V1 Cr1 Co4 Cu1 Ni1 O18          
   1.00000000000000     
     0.0111830000000000    6.3389069999999998    6.1830230000000004
     6.3216089999999996    0.0064340000000000    6.1866529999999997
     4.1861160000000002    4.2010519999999998    0.0317320000000000
   Li   Sc   V    Cr   Co   Cu   Ni   O 
     9     1     1     1     4     1     1    18
Direct
  0.0163780000000031  0.3383290000000017  0.9746150000000000
  0.0095680000000016  0.3337199999999996  0.5036460000000034
  0.0178179999999983  0.6465869999999967  0.0164779999999993
  0.0084179999999989  0.6591809999999967  0.4926069999999996
  0.3224700000000027  0.3369069999999965  0.5018180000000001
  0.6600329999999985  0.0091639999999984  0.0073980000000020
  0.6776989999999969  0.3203770000000006  0.9842220000000026
  0.6574650000000020  0.3263970000000000  0.5262919999999980
  0.6665109999999999  0.6757369999999980  0.5004089999999977
  0.9795129999999972  0.0076170000000033  0.5152810000000017
  0.7029149999999973  0.6375090000000014  0.0148510000000002
  0.3362290000000030  0.9987390000000005  0.9879889999999989
  0.3336630000000014  0.0000479999999996  0.4907090000000025
  0.3264550000000028  0.6582980000000020  0.0096020000000010
  0.3348080000000024  0.6658910000000020  0.5039769999999990
  0.6587579999999988  0.0121930000000035  0.4716430000000003
  0.3304850000000030  0.3404219999999967  0.0012150000000020
  0.9906209999999973  0.0052090000000007  0.9989360000000005
  0.1875369999999990  0.1487240000000014  0.2429530000000000
  0.1813590000000005  0.1394499999999965  0.7443600000000004
  0.1671890000000005  0.5078170000000028  0.2548320000000004
  0.1895809999999969  0.4997510000000034  0.7460930000000019
  0.1790060000000011  0.8269549999999981  0.2539879999999997
  0.1780869999999979  0.8353129999999993  0.7249389999999991
  0.4846599999999981  0.1596789999999970  0.2542890000000000
  0.5091609999999989  0.1447059999999993  0.7248880000000000
  0.5045769999999976  0.5378400000000028  0.2407919999999990
  0.4810629999999989  0.5157799999999995  0.7438989999999990
  0.4843180000000018  0.8341270000000023  0.2536300000000011
  0.4806019999999975  0.8433909999999969  0.7400310000000019
  0.8355320000000006  0.1636039999999994  0.2479790000000008
  0.8390150000000034  0.1667429999999968  0.7441719999999989
  0.8256599999999992  0.5108949999999979  0.2384819999999976
  0.8143549999999991  0.5164729999999977  0.7861609999999999
  0.8165830000000014  0.8520210000000006  0.2752699999999990
  0.8119099999999975  0.8244040000000012  0.7815530000000024
 
  0.00000000E+00  0.00000000E+00  0.00000000E+00
  0.00000000E+00  0.00000000E+00  0.00000000E+00
  0.00000000E+00  0.00000000E+00  0.00000000E+00
  0.00000000E+00  0.00000000E+00  0.00000000E+00
  0.00000000E+00  0.00000000E+00  0.00000000E+00
  0.00000000E+00  0.00000000E+00  0.00000000E+00
  0.00000000E+00  0.00000000E+00  0.00000000E+00
  0.00000000E+00  0.00000000E+00  0.00000000E+00
  0.00000000E+00  0.00000000E+00  0.00000000E+00
  0.00000000E+00  0.00000000E+00  0.00000000E+00
  0.00000000E+00  0.00000000E+00  0.00000000E+00
  0.00000000E+00  0.00000000E+00  0.00000000E+00
  0.00000000E+00  0.00000000E+00  0.00000000E+00
  0.00000000E+00  0.00000000E+00  0.00000000E+00
  0.00000000E+00  0.00000000E+00  0.00000000E+00
  0.00000000E+00  0.00000000E+00  0.00000000E+00
  0.00000000E+00  0.00000000E+00  0.00000000E+00
  0.00000000E+00  0.00000000E+00  0.00000000E+00
  0.00000000E+00  0.00000000E+00  0.00000000E+00
  0.00000000E+00  0.00000000E+00  0.00000000E+00
  0.00000000E+00  0.00000000E+00  0.00000000E+00
  0.00000000E+00  0.00000000E+00  0.00000000E+00
  0.00000000E+00  0.00000000E+00  0.00000000E+00
  0.00000000E+00  0.00000000E+00  0.00000000E+00
  0.00000000E+00  0.00000000E+00  0.00000000E+00
  0.00000000E+00  0.00000000E+00  0.00000000E+00
  0.00000000E+00  0.00000000E+00  0.00000000E+00
  0.00000000E+00  0.00000000E+00  0.00000000E+00
  0.00000000E+00  0.00000000E+00  0.00000000E+00
  0.00000000E+00  0.00000000E+00  0.00000000E+00
  0.00000000E+00  0.00000000E+00  0.00000000E+00
  0.00000000E+00  0.00000000E+00  0.00000000E+00
  0.00000000E+00  0.00000000E+00  0.00000000E+00
  0.00000000E+00  0.00000000E+00  0.00000000E+00
  0.00000000E+00  0.00000000E+00  0.00000000E+00
  0.00000000E+00  0.00000000E+00  0.00000000E+00
