Li9 Ti2 Mn2 Cr2 Fe1 Cu2 O18             
   1.00000000000000     
    -0.0046260000000000    6.6036429999999999    6.2274070000000004
     6.1057969999999999    0.0082840000000000    6.2156349999999998
     4.0789460000000002    4.4030969999999998   -0.0039480000000000
   Li   Ti   Mn   Cr   Fe   Cu   O 
     9     2     2     2     1     2    18
Direct
  0.0070660000000018  0.9864779999999982  0.5071330000000032
  0.0116110000000020  0.3470500000000030  0.9804290000000009
  0.0232870000000034  0.6597269999999966  0.9702860000000015
  0.0135649999999998  0.6570170000000033  0.5194699999999983
  0.3239379999999983  0.3530620000000013  0.9808990000000009
  0.3097470000000015  0.6751319999999978  0.9995819999999966
  0.3210819999999970  0.6608289999999997  0.5257280000000009
  0.6679439999999985  0.9927470000000014  0.5143940000000029
  0.6640889999999970  0.3410250000000019  0.9846870000000010
  0.6840660000000014  0.9968480000000000  0.0093800000000002
  0.6731049999999996  0.3255989999999969  0.4727949999999979
  0.3255210000000019  0.0043790000000001  0.0045339999999996
  0.6622429999999966  0.6628940000000014  0.5110359999999972
  0.0047309999999996  0.3366129999999998  0.4947110000000023
  0.3307900000000004  0.3492740000000012  0.4825409999999977
  0.3202659999999966  0.9948350000000019  0.5158279999999991
  0.0005600000000001  0.9853340000000017  0.0383920000000018
  0.6683590000000024  0.6645570000000021  0.9932990000000004
  0.1804509999999979  0.1533889999999971  0.2679079999999985
  0.1677070000000001  0.1898449999999983  0.7180669999999978
  0.1721349999999973  0.4857459999999989  0.2703399999999974
  0.1758250000000032  0.4983679999999993  0.7306809999999970
  0.1710660000000033  0.8532060000000001  0.2285800000000009
  0.1576629999999994  0.8472349999999977  0.7663190000000029
  0.5002700000000004  0.1561909999999997  0.2456370000000021
  0.4989149999999967  0.1725830000000030  0.7439380000000000
  0.5236500000000035  0.4832839999999976  0.2596970000000027
  0.5218190000000007  0.4992489999999989  0.7174339999999972
  0.5096970000000027  0.8310689999999994  0.2551369999999977
  0.4743279999999999  0.8555360000000007  0.7481059999999999
  0.8311319999999967  0.1621990000000011  0.2587159999999997
  0.8237659999999991  0.1655480000000011  0.7476150000000032
  0.8459780000000023  0.4667060000000021  0.2785269999999969
  0.8204800000000034  0.5144930000000016  0.7238820000000032
  0.8064779999999985  0.8345410000000015  0.2524530000000027
  0.8066710000000015  0.8374110000000030  0.7818370000000030
 
  0.00000000E+00  0.00000000E+00  0.00000000E+00
  0.00000000E+00  0.00000000E+00  0.00000000E+00
  0.00000000E+00  0.00000000E+00  0.00000000E+00
  0.00000000E+00  0.00000000E+00  0.00000000E+00
  0.00000000E+00  0.00000000E+00  0.00000000E+00
  0.00000000E+00  0.00000000E+00  0.00000000E+00
  0.00000000E+00  0.00000000E+00  0.00000000E+00
  0.00000000E+00  0.00000000E+00  0.00000000E+00
  0.00000000E+00  0.00000000E+00  0.00000000E+00
  0.00000000E+00  0.00000000E+00  0.00000000E+00
  0.00000000E+00  0.00000000E+00  0.00000000E+00
  0.00000000E+00  0.00000000E+00  0.00000000E+00
  0.00000000E+00  0.00000000E+00  0.00000000E+00
  0.00000000E+00  0.00000000E+00  0.00000000E+00
  0.00000000E+00  0.00000000E+00  0.00000000E+00
  0.00000000E+00  0.00000000E+00  0.00000000E+00
  0.00000000E+00  0.00000000E+00  0.00000000E+00
  0.00000000E+00  0.00000000E+00  0.00000000E+00
  0.00000000E+00  0.00000000E+00  0.00000000E+00
  0.00000000E+00  0.00000000E+00  0.00000000E+00
  0.00000000E+00  0.00000000E+00  0.00000000E+00
  0.00000000E+00  0.00000000E+00  0.00000000E+00
  0.00000000E+00  0.00000000E+00  0.00000000E+00
  0.00000000E+00  0.00000000E+00  0.00000000E+00
  0.00000000E+00  0.00000000E+00  0.00000000E+00
  0.00000000E+00  0.00000000E+00  0.00000000E+00
  0.00000000E+00  0.00000000E+00  0.00000000E+00
  0.00000000E+00  0.00000000E+00  0.00000000E+00
  0.00000000E+00  0.00000000E+00  0.00000000E+00
  0.00000000E+00  0.00000000E+00  0.00000000E+00
  0.00000000E+00  0.00000000E+00  0.00000000E+00
  0.00000000E+00  0.00000000E+00  0.00000000E+00
  0.00000000E+00  0.00000000E+00  0.00000000E+00
  0.00000000E+00  0.00000000E+00  0.00000000E+00
  0.00000000E+00  0.00000000E+00  0.00000000E+00
  0.00000000E+00  0.00000000E+00  0.00000000E+00
