Li9 Mn2 V2 Fe1 Cu2 Ni2 O18
1.0
-0.022524 6.400273 6.366207
6.075665 -0.043698 6.385219
4.035357 4.262978 -0.012059
Li Mn V Fe Cu Ni O
9 2 2 1 2 2 18
direct
0.003219 0.030716 0.963752 Li
0.007888 0.018065 0.497169 Li
0.021789 0.322103 0.991121 Li
0.993237 0.664292 0.505047 Li
0.318611 0.013245 0.501865 Li
0.312091 0.328493 0.520101 Li
0.685422 0.021462 0.965605 Li
0.682327 0.318746 0.518619 Li
0.666618 0.658049 0.006084 Li
0.331725 0.663189 0.493972 Mn
0.663517 0.661646 0.505468 Mn
0.984246 0.678000 0.980194 V
0.667846 0.021198 0.468023 V
0.322906 0.665464 0.011337 Fe
0.331275 0.327348 0.995955 Cu
0.677934 0.336305 0.994534 Cu
0.327129 0.004829 0.991825 Ni
0.006769 0.323818 0.509858 Ni
0.832445 0.180595 0.753263 O
0.185292 0.176110 0.229524 O
0.167973 0.168024 0.751065 O
0.151205 0.523246 0.216187 O
0.158114 0.528158 0.728891 O
0.190549 0.823829 0.253282 O
0.169764 0.810370 0.757388 O
0.529422 0.155327 0.264780 O
0.519292 0.130330 0.751523 O
0.475866 0.506109 0.247175 O
0.469859 0.501689 0.742637 O
0.492347 0.798038 0.296700 O
0.508902 0.828523 0.740388 O
0.825187 0.132709 0.306438 O
0.841575 0.515227 0.242213 O
0.810929 0.504501 0.742975 O
0.824822 0.837544 0.274491 O
0.841911 0.822703 0.780552 O
