Li9 Sc1 Cr1 Fe6 Cu1 O18                 
   1.00000000000000     
     0.0134430000000000    6.2939629999999998    6.3555659999999996
     6.2465450000000002    0.0342870000000000    6.3348160000000000
     4.1776039999999997    4.1953430000000003    0.0095740000000000
   Li   Sc   Cr   Fe   Cu   O 
     9     1     1     6     1    18
Direct
  0.0008120000000034  0.3382859999999965  0.9941630000000004
  0.9960310000000021  0.6627140000000011  0.0062190000000015
  0.3360369999999975  0.0036169999999984  0.9975099999999983
  0.3286659999999983  0.3372310000000027  0.5062649999999991
  0.3407309999999981  0.6568189999999987  0.5015530000000012
  0.6590959999999981  0.0020280000000028  0.0052110000000027
  0.6595939999999985  0.3409279999999981  0.9944369999999978
  0.6608540000000005  0.3424910000000025  0.5026709999999994
  0.6690299999999993  0.6626260000000030  0.4965079999999986
  0.6546779999999970  0.0100849999999966  0.5018010000000004
  0.9975579999999979  0.0013440000000031  0.9992289999999997
  0.9980139999999977  0.9997430000000023  0.5011780000000030
  0.9918910000000025  0.3470870000000019  0.4983130000000031
  0.3401489999999967  0.9951300000000032  0.4830650000000034
  0.3369690000000034  0.3362490000000022  0.9676230000000032
  0.3443400000000025  0.6540520000000001  0.0053640000000001
  0.6704239999999970  0.6561850000000007  0.0372970000000024
  0.0049780000000013  0.6595170000000010  0.5082859999999982
  0.1757619999999989  0.4904190000000028  0.7591290000000015
  0.1657099999999971  0.1651510000000016  0.2573229999999995
  0.1575580000000016  0.1593769999999992  0.7374930000000006
  0.1671850000000035  0.5004009999999965  0.2515029999999996
  0.1550299999999964  0.8297400000000010  0.2559380000000004
  0.1668420000000026  0.8435649999999981  0.7456290000000010
  0.4877010000000013  0.1613389999999981  0.2547470000000018
  0.4966659999999976  0.1726389999999967  0.7490499999999969
  0.5072839999999985  0.5133560000000017  0.2237539999999996
  0.4831590000000006  0.4963539999999966  0.7766039999999990
  0.5022239999999982  0.8313989999999976  0.2484609999999989
  0.4931279999999987  0.8325329999999980  0.7539429999999996
  0.8446369999999987  0.1497600000000006  0.2580039999999997
  0.8513540000000006  0.1628309999999971  0.7380569999999977
  0.8313520000000025  0.4985659999999967  0.2593790000000027
  0.8448059999999984  0.5102150000000023  0.7381230000000016
  0.8421329999999969  0.8454410000000010  0.2416970000000020
  0.8376179999999991  0.8307840000000013  0.7444750000000013
 
  0.00000000E+00  0.00000000E+00  0.00000000E+00
  0.00000000E+00  0.00000000E+00  0.00000000E+00
  0.00000000E+00  0.00000000E+00  0.00000000E+00
  0.00000000E+00  0.00000000E+00  0.00000000E+00
  0.00000000E+00  0.00000000E+00  0.00000000E+00
  0.00000000E+00  0.00000000E+00  0.00000000E+00
  0.00000000E+00  0.00000000E+00  0.00000000E+00
  0.00000000E+00  0.00000000E+00  0.00000000E+00
  0.00000000E+00  0.00000000E+00  0.00000000E+00
  0.00000000E+00  0.00000000E+00  0.00000000E+00
  0.00000000E+00  0.00000000E+00  0.00000000E+00
  0.00000000E+00  0.00000000E+00  0.00000000E+00
  0.00000000E+00  0.00000000E+00  0.00000000E+00
  0.00000000E+00  0.00000000E+00  0.00000000E+00
  0.00000000E+00  0.00000000E+00  0.00000000E+00
  0.00000000E+00  0.00000000E+00  0.00000000E+00
  0.00000000E+00  0.00000000E+00  0.00000000E+00
  0.00000000E+00  0.00000000E+00  0.00000000E+00
  0.00000000E+00  0.00000000E+00  0.00000000E+00
  0.00000000E+00  0.00000000E+00  0.00000000E+00
  0.00000000E+00  0.00000000E+00  0.00000000E+00
  0.00000000E+00  0.00000000E+00  0.00000000E+00
  0.00000000E+00  0.00000000E+00  0.00000000E+00
  0.00000000E+00  0.00000000E+00  0.00000000E+00
  0.00000000E+00  0.00000000E+00  0.00000000E+00
  0.00000000E+00  0.00000000E+00  0.00000000E+00
  0.00000000E+00  0.00000000E+00  0.00000000E+00
  0.00000000E+00  0.00000000E+00  0.00000000E+00
  0.00000000E+00  0.00000000E+00  0.00000000E+00
  0.00000000E+00  0.00000000E+00  0.00000000E+00
  0.00000000E+00  0.00000000E+00  0.00000000E+00
  0.00000000E+00  0.00000000E+00  0.00000000E+00
  0.00000000E+00  0.00000000E+00  0.00000000E+00
  0.00000000E+00  0.00000000E+00  0.00000000E+00
  0.00000000E+00  0.00000000E+00  0.00000000E+00
  0.00000000E+00  0.00000000E+00  0.00000000E+00
