Li9 Ti2 V1 Cr2 Co1 Cu3 O18
1.0
-0.010964 6.190761 6.252800
6.533129 0.014177 6.227322
4.356798 4.110662 0.007992
Li Ti V Cr Co Cu O
9 2 1 2 1 3 18
direct
0.992120 0.000911 0.980306 Li
0.988751 0.337425 0.478252 Li
0.350101 0.990045 0.992701 Li
0.360673 0.331092 0.977972 Li
0.362172 0.329010 0.478596 Li
0.343843 0.645504 0.987385 Li
0.337177 0.660480 0.524958 Li
0.655247 0.320446 0.997435 Li
0.648517 0.330558 0.539023 Li
0.016751 0.676471 0.465231 Ti
0.645037 0.654425 0.038892 Ti
0.028381 0.303315 0.967936 V
0.994359 0.005996 0.503364 Cr
0.660576 0.658513 0.519386 Cr
0.335793 0.997300 0.510798 Co
0.007058 0.674142 0.990065 Cu
0.659478 0.018632 0.994036 Cu
0.654627 0.016466 0.505112 Cu
0.149621 0.179827 0.227880 O
0.151371 0.176412 0.761805 O
0.141312 0.528786 0.258085 O
0.146681 0.484682 0.753226 O
0.149525 0.837074 0.278240 O
0.161028 0.845013 0.734094 O
0.485534 0.162331 0.278866 O
0.511636 0.150177 0.747712 O
0.507517 0.506758 0.254755 O
0.508521 0.502265 0.745925 O
0.520128 0.821903 0.240922 O
0.506019 0.806740 0.770561 O
0.855154 0.192892 0.213131 O
0.838618 0.152211 0.735704 O
0.825081 0.530421 0.244146 O
0.833503 0.510040 0.773785 O
0.813575 0.840090 0.298355 O
0.854516 0.821646 0.731360 O
