Li9 Ti3 V1 Cr1 Co4 O18
1.0
-0.000332 6.255890 6.215661
6.323924 -0.015868 6.230829
4.224998 4.189575 -0.019582
Li Ti V Cr Co O
9 3 1 1 4 18
direct
0.007665 0.336636 0.485536 Li
0.989346 0.680228 0.503476 Li
0.337394 0.992301 0.005104 Li
0.326202 0.330936 0.002262 Li
0.319089 0.676968 0.495723 Li
0.678814 0.977663 0.000996 Li
0.674837 0.974925 0.518159 Li
0.666838 0.693254 0.979251 Li
0.675755 0.682850 0.482160 Li
0.354930 0.990908 0.469490 Ti
0.669879 0.347110 0.987386 Ti
0.671557 0.331646 0.509516 Ti
0.317213 0.336302 0.513743 V
0.000561 0.992408 0.009065 Cr
0.008195 0.328953 0.008454 Co
0.988360 0.669142 0.997864 Co
0.333961 0.674502 0.003776 Co
0.001328 0.991254 0.502413 Co
0.162412 0.152402 0.278634 O
0.167814 0.171575 0.744716 O
0.189521 0.488973 0.260665 O
0.173631 0.491715 0.747077 O
0.161906 0.842462 0.232175 O
0.163505 0.852128 0.747537 O
0.483529 0.172391 0.267938 O
0.495981 0.193133 0.705928 O
0.509161 0.479217 0.260059 O
0.518039 0.478859 0.752508 O
0.490710 0.844929 0.258502 O
0.486990 0.840926 0.734013 O
0.823022 0.169363 0.245397 O
0.813239 0.174810 0.771097 O
0.824082 0.481894 0.269454 O
0.820138 0.488526 0.776931 O
0.850327 0.831510 0.230770 O
0.844068 0.837206 0.742226 O
