Li23 Mn36 O72                           
   1.00000000000000     
     4.2271349999999996    8.7237390000000001    4.1786310000000002
     8.1683479999999999   -4.3032769999999996   -4.0686340000000003
     6.1434519999999999    6.4549709999999996  -12.2086810000000003
   Li   Mn   O 
    23    36    72
Direct
  0.2456859999999992  0.7624449999999996  0.4926910000000007
  0.7494719999999973  0.2591800000000006  0.8357099999999988
  0.7468009999999978  0.7581279999999992  0.1692549999999997
  0.7441510000000022  0.7666210000000007  0.4948189999999997
  0.9862949999999984  0.3389030000000020  0.2178600000000017
  0.0079089999999979  0.3308430000000016  0.5547779999999989
  0.0008949999999999  0.3332229999999967  0.8888430000000014
  0.0096989999999977  0.8287989999999965  0.2272439999999989
  0.9843210000000013  0.8430019999999985  0.5504180000000005
  0.9990530000000035  0.8345359999999999  0.8871790000000033
  0.5188849999999974  0.3273769999999985  0.2257510000000025
  0.5018460000000005  0.3274120000000025  0.5557209999999984
  0.5072359999999989  0.3252159999999975  0.8942619999999977
  0.4813249999999982  0.8418070000000029  0.2171310000000020
  0.5085529999999991  0.8290780000000026  0.5586449999999985
  0.4987380000000030  0.8307270000000031  0.8886299999999991
  0.2525679999999966  0.4081199999999967  0.2753850000000000
  0.2535769999999999  0.4102740000000011  0.6060919999999967
  0.2521869999999993  0.4035000000000011  0.9468499999999977
  0.2510940000000019  0.9174450000000007  0.6094610000000031
  0.2552919999999972  0.9089549999999988  0.9467500000000015
  0.7523380000000017  0.4081880000000027  0.6095839999999981
  0.7507379999999984  0.9081850000000031  0.9406329999999983
  0.4973280000000031  0.4925029999999992  0.3332849999999965
  0.4998640000000023  0.4898469999999975  0.6697780000000009
  0.4975209999999990  0.4966760000000008  0.9993210000000019
  0.5038020000000003  0.9971609999999984  0.3315190000000001
  0.4992379999999983  0.9968420000000009  0.6646250000000009
  0.5023010000000028  0.9963460000000026  0.9999779999999987
  0.9940339999999992  0.4956559999999968  0.3325549999999993
  0.0008910000000029  0.5007149999999996  0.6635840000000002
  0.0025490000000019  0.4989330000000010  0.9968849999999989
  0.0028739999999985  0.0015860000000032  0.3300869999999989
  0.0038470000000004  0.9993380000000016  0.6633330000000015
  0.9999579999999995  0.0026459999999986  0.9976479999999981
  0.2483179999999976  0.0766459999999967  0.0639579999999995
  0.2513920000000027  0.0867039999999974  0.3830069999999992
  0.2501419999999968  0.0825299999999984  0.7247989999999973
  0.2481849999999994  0.5833399999999997  0.0571929999999981
  0.2497499999999988  0.5894130000000004  0.3817850000000007
  0.2502819999999986  0.5829149999999998  0.7245670000000004
  0.7499740000000017  0.0947800000000001  0.0601429999999965
  0.7504080000000002  0.0935399999999973  0.3868859999999970
  0.7500530000000012  0.0733800000000002  0.7169659999999993
  0.7488560000000035  0.5720299999999980  0.0542659999999984
  0.7484419999999972  0.5776409999999998  0.3873630000000006
  0.7495079999999987  0.5947000000000031  0.7280280000000019
  0.9975689999999986  0.1669750000000008  0.1157040000000009
  0.9993399999999966  0.1679540000000017  0.4466800000000006
  0.0001639999999981  0.1701309999999978  0.7788249999999977
  0.9966549999999970  0.6695520000000030  0.1130139999999997
  0.9995499999999993  0.6722650000000030  0.4447729999999979
  0.0028769999999980  0.6689799999999977  0.7805480000000031
  0.4980990000000034  0.1712020000000010  0.1127990000000025
  0.4957589999999996  0.1678080000000008  0.4461609999999965
  0.5005200000000016  0.1656460000000024  0.7808940000000035
  0.4993339999999975  0.6694699999999969  0.1120299999999972
  0.5044889999999995  0.6703710000000029  0.4433650000000000
  0.4938130000000029  0.6711870000000033  0.7792949999999976
  0.1087309999999988  0.3813379999999995  0.0738800000000026
  0.1071519999999992  0.3827849999999984  0.4055260000000018
  0.1099829999999997  0.3837619999999973  0.7384259999999969
  0.1061929999999975  0.8827629999999971  0.0736640000000008
  0.1071280000000030  0.8771670000000000  0.4148629999999969
  0.1123059999999967  0.8828859999999992  0.7404220000000024
  0.6002360000000024  0.3795670000000015  0.0785860000000014
  0.5976840000000010  0.3729900000000015  0.4137709999999970
  0.6133340000000018  0.3734800000000007  0.7465120000000027
  0.6125219999999985  0.8779230000000027  0.0769289999999998
  0.6080680000000029  0.8754720000000020  0.4158439999999999
  0.5991959999999992  0.8773869999999988  0.7459010000000035
  0.3794260000000023  0.4835509999999985  0.1280789999999996
  0.3828079999999972  0.4816399999999987  0.4591360000000009
  0.3661019999999979  0.4838069999999988  0.7982820000000004
  0.3889119999999977  0.9801829999999967  0.1247309999999970
  0.3733450000000005  0.9742469999999983  0.4615379999999973
  0.3818619999999981  0.9787520000000001  0.7979720000000015
  0.8875730000000033  0.4833119999999980  0.1215449999999976
  0.8742889999999974  0.4821809999999971  0.4613999999999976
  0.8852750000000000  0.4781049999999993  0.7899850000000015
  0.8792540000000031  0.9791919999999976  0.1238979999999970
  0.8809189999999987  0.9774450000000030  0.4579019999999971
  0.8838130000000035  0.9829330000000027  0.7942189999999982
  0.1194249999999997  0.1905860000000033  0.3198319999999981
  0.1194520000000026  0.1943219999999997  0.6530690000000021
  0.1167820000000006  0.1892720000000025  0.9890710000000027
  0.1079780000000028  0.6854489999999984  0.3205159999999978
  0.1336390000000023  0.6903950000000023  0.6490500000000026
  0.1188659999999970  0.6949269999999999  0.9885599999999997
  0.6127049999999983  0.1839050000000029  0.3216079999999977
  0.6169360000000026  0.1887550000000005  0.6537829999999971
  0.6190380000000033  0.1887150000000020  0.9825289999999995
  0.6236069999999998  0.6807840000000027  0.3181829999999977
  0.6126360000000020  0.6836380000000020  0.6518569999999997
  0.6181079999999994  0.6906370000000024  0.9868710000000007
  0.3913459999999986  0.2885769999999965  0.0306149999999974
  0.3923050000000003  0.2892920000000032  0.3612549999999999
  0.3975500000000025  0.2860760000000013  0.6976960000000005
  0.3958450000000013  0.7915670000000006  0.0298640000000034
  0.3947530000000015  0.7853899999999996  0.3696359999999999
  0.3908500000000004  0.7902569999999969  0.6945880000000031
  0.8979659999999967  0.2892360000000025  0.0326779999999971
  0.8958579999999969  0.2856439999999978  0.3670970000000011
  0.8891780000000011  0.2913020000000017  0.6997459999999975
  0.8870199999999997  0.7901129999999981  0.0354480000000024
  0.8930349999999976  0.7903159999999971  0.3708859999999987
  0.9021400000000028  0.7886060000000015  0.6989090000000004
  0.1011480000000020  0.0455910000000017  0.1930819999999969
  0.1075889999999973  0.0453350000000015  0.5245669999999976
  0.1028739999999999  0.0480489999999989  0.8589399999999969
  0.1004799999999975  0.5469170000000005  0.1923140000000032
  0.1114180000000005  0.5542620000000014  0.5229989999999987
  0.1087080000000000  0.5451210000000017  0.8570449999999994
  0.6021750000000026  0.0497450000000015  0.1904550000000000
  0.6010800000000032  0.0501750000000030  0.5227519999999970
  0.6137390000000025  0.0522520000000029  0.8585410000000024
  0.6083769999999973  0.5558470000000000  0.1899110000000022
  0.6219970000000004  0.5555530000000033  0.5155850000000015
  0.5960019999999986  0.5487219999999979  0.8576359999999994
  0.3988980000000026  0.1165549999999982  0.2543909999999983
  0.3887519999999967  0.1093919999999997  0.5890160000000009
  0.3932980000000015  0.1083969999999965  0.9228960000000015
  0.3914270000000002  0.6121150000000029  0.2536109999999994
  0.3889399999999981  0.6071719999999985  0.5876179999999991
  0.3872229999999988  0.6115640000000013  0.9232060000000004
  0.8981080000000006  0.1203039999999973  0.2545709999999985
  0.9013210000000029  0.1200559999999982  0.5858709999999974
  0.8884899999999973  0.1184549999999973  0.9180810000000008
  0.8884789999999967  0.6215329999999994  0.2548340000000024
  0.8899299999999997  0.6160309999999996  0.5865500000000026
  0.9001319999999993  0.6210650000000015  0.9189459999999983
 
  0.00000000E+00  0.00000000E+00  0.00000000E+00
  0.00000000E+00  0.00000000E+00  0.00000000E+00
  0.00000000E+00  0.00000000E+00  0.00000000E+00
  0.00000000E+00  0.00000000E+00  0.00000000E+00
  0.00000000E+00  0.00000000E+00  0.00000000E+00
  0.00000000E+00  0.00000000E+00  0.00000000E+00
  0.00000000E+00  0.00000000E+00  0.00000000E+00
  0.00000000E+00  0.00000000E+00  0.00000000E+00
  0.00000000E+00  0.00000000E+00  0.00000000E+00
  0.00000000E+00  0.00000000E+00  0.00000000E+00
  0.00000000E+00  0.00000000E+00  0.00000000E+00
  0.00000000E+00  0.00000000E+00  0.00000000E+00
  0.00000000E+00  0.00000000E+00  0.00000000E+00
  0.00000000E+00  0.00000000E+00  0.00000000E+00
  0.00000000E+00  0.00000000E+00  0.00000000E+00
  0.00000000E+00  0.00000000E+00  0.00000000E+00
  0.00000000E+00  0.00000000E+00  0.00000000E+00
  0.00000000E+00  0.00000000E+00  0.00000000E+00
  0.00000000E+00  0.00000000E+00  0.00000000E+00
  0.00000000E+00  0.00000000E+00  0.00000000E+00
  0.00000000E+00  0.00000000E+00  0.00000000E+00
  0.00000000E+00  0.00000000E+00  0.00000000E+00
  0.00000000E+00  0.00000000E+00  0.00000000E+00
  0.00000000E+00  0.00000000E+00  0.00000000E+00
  0.00000000E+00  0.00000000E+00  0.00000000E+00
  0.00000000E+00  0.00000000E+00  0.00000000E+00
  0.00000000E+00  0.00000000E+00  0.00000000E+00
  0.00000000E+00  0.00000000E+00  0.00000000E+00
  0.00000000E+00  0.00000000E+00  0.00000000E+00
  0.00000000E+00  0.00000000E+00  0.00000000E+00
  0.00000000E+00  0.00000000E+00  0.00000000E+00
  0.00000000E+00  0.00000000E+00  0.00000000E+00
  0.00000000E+00  0.00000000E+00  0.00000000E+00
  0.00000000E+00  0.00000000E+00  0.00000000E+00
  0.00000000E+00  0.00000000E+00  0.00000000E+00
  0.00000000E+00  0.00000000E+00  0.00000000E+00
  0.00000000E+00  0.00000000E+00  0.00000000E+00
  0.00000000E+00  0.00000000E+00  0.00000000E+00
  0.00000000E+00  0.00000000E+00  0.00000000E+00
  0.00000000E+00  0.00000000E+00  0.00000000E+00
  0.00000000E+00  0.00000000E+00  0.00000000E+00
  0.00000000E+00  0.00000000E+00  0.00000000E+00
  0.00000000E+00  0.00000000E+00  0.00000000E+00
  0.00000000E+00  0.00000000E+00  0.00000000E+00
  0.00000000E+00  0.00000000E+00  0.00000000E+00
  0.00000000E+00  0.00000000E+00  0.00000000E+00
  0.00000000E+00  0.00000000E+00  0.00000000E+00
  0.00000000E+00  0.00000000E+00  0.00000000E+00
  0.00000000E+00  0.00000000E+00  0.00000000E+00
  0.00000000E+00  0.00000000E+00  0.00000000E+00
  0.00000000E+00  0.00000000E+00  0.00000000E+00
  0.00000000E+00  0.00000000E+00  0.00000000E+00
  0.00000000E+00  0.00000000E+00  0.00000000E+00
  0.00000000E+00  0.00000000E+00  0.00000000E+00
  0.00000000E+00  0.00000000E+00  0.00000000E+00
  0.00000000E+00  0.00000000E+00  0.00000000E+00
  0.00000000E+00  0.00000000E+00  0.00000000E+00
  0.00000000E+00  0.00000000E+00  0.00000000E+00
  0.00000000E+00  0.00000000E+00  0.00000000E+00
  0.00000000E+00  0.00000000E+00  0.00000000E+00
  0.00000000E+00  0.00000000E+00  0.00000000E+00
  0.00000000E+00  0.00000000E+00  0.00000000E+00
  0.00000000E+00  0.00000000E+00  0.00000000E+00
  0.00000000E+00  0.00000000E+00  0.00000000E+00
  0.00000000E+00  0.00000000E+00  0.00000000E+00
  0.00000000E+00  0.00000000E+00  0.00000000E+00
  0.00000000E+00  0.00000000E+00  0.00000000E+00
  0.00000000E+00  0.00000000E+00  0.00000000E+00
  0.00000000E+00  0.00000000E+00  0.00000000E+00
  0.00000000E+00  0.00000000E+00  0.00000000E+00
  0.00000000E+00  0.00000000E+00  0.00000000E+00
  0.00000000E+00  0.00000000E+00  0.00000000E+00
  0.00000000E+00  0.00000000E+00  0.00000000E+00
  0.00000000E+00  0.00000000E+00  0.00000000E+00
  0.00000000E+00  0.00000000E+00  0.00000000E+00
  0.00000000E+00  0.00000000E+00  0.00000000E+00
  0.00000000E+00  0.00000000E+00  0.00000000E+00
  0.00000000E+00  0.00000000E+00  0.00000000E+00
  0.00000000E+00  0.00000000E+00  0.00000000E+00
  0.00000000E+00  0.00000000E+00  0.00000000E+00
  0.00000000E+00  0.00000000E+00  0.00000000E+00
  0.00000000E+00  0.00000000E+00  0.00000000E+00
  0.00000000E+00  0.00000000E+00  0.00000000E+00
  0.00000000E+00  0.00000000E+00  0.00000000E+00
  0.00000000E+00  0.00000000E+00  0.00000000E+00
  0.00000000E+00  0.00000000E+00  0.00000000E+00
  0.00000000E+00  0.00000000E+00  0.00000000E+00
  0.00000000E+00  0.00000000E+00  0.00000000E+00
  0.00000000E+00  0.00000000E+00  0.00000000E+00
  0.00000000E+00  0.00000000E+00  0.00000000E+00
  0.00000000E+00  0.00000000E+00  0.00000000E+00
  0.00000000E+00  0.00000000E+00  0.00000000E+00
  0.00000000E+00  0.00000000E+00  0.00000000E+00
  0.00000000E+00  0.00000000E+00  0.00000000E+00
  0.00000000E+00  0.00000000E+00  0.00000000E+00
  0.00000000E+00  0.00000000E+00  0.00000000E+00
  0.00000000E+00  0.00000000E+00  0.00000000E+00
  0.00000000E+00  0.00000000E+00  0.00000000E+00
  0.00000000E+00  0.00000000E+00  0.00000000E+00
  0.00000000E+00  0.00000000E+00  0.00000000E+00
  0.00000000E+00  0.00000000E+00  0.00000000E+00
  0.00000000E+00  0.00000000E+00  0.00000000E+00
  0.00000000E+00  0.00000000E+00  0.00000000E+00
  0.00000000E+00  0.00000000E+00  0.00000000E+00
  0.00000000E+00  0.00000000E+00  0.00000000E+00
  0.00000000E+00  0.00000000E+00  0.00000000E+00
  0.00000000E+00  0.00000000E+00  0.00000000E+00
  0.00000000E+00  0.00000000E+00  0.00000000E+00
  0.00000000E+00  0.00000000E+00  0.00000000E+00
  0.00000000E+00  0.00000000E+00  0.00000000E+00
  0.00000000E+00  0.00000000E+00  0.00000000E+00
  0.00000000E+00  0.00000000E+00  0.00000000E+00
  0.00000000E+00  0.00000000E+00  0.00000000E+00
  0.00000000E+00  0.00000000E+00  0.00000000E+00
  0.00000000E+00  0.00000000E+00  0.00000000E+00
  0.00000000E+00  0.00000000E+00  0.00000000E+00
  0.00000000E+00  0.00000000E+00  0.00000000E+00
  0.00000000E+00  0.00000000E+00  0.00000000E+00
  0.00000000E+00  0.00000000E+00  0.00000000E+00
  0.00000000E+00  0.00000000E+00  0.00000000E+00
  0.00000000E+00  0.00000000E+00  0.00000000E+00
  0.00000000E+00  0.00000000E+00  0.00000000E+00
  0.00000000E+00  0.00000000E+00  0.00000000E+00
  0.00000000E+00  0.00000000E+00  0.00000000E+00
  0.00000000E+00  0.00000000E+00  0.00000000E+00
  0.00000000E+00  0.00000000E+00  0.00000000E+00
  0.00000000E+00  0.00000000E+00  0.00000000E+00
  0.00000000E+00  0.00000000E+00  0.00000000E+00
  0.00000000E+00  0.00000000E+00  0.00000000E+00
  0.00000000E+00  0.00000000E+00  0.00000000E+00
  0.00000000E+00  0.00000000E+00  0.00000000E+00
