Li9 V1 Cr3 Fe1 Cu1 Ni3 O18              
   1.00000000000000     
     0.0185610000000000    6.1736700000000004    6.3318510000000003
     6.1375260000000003    0.0134870000000000    6.3371870000000001
     4.0891650000000004    4.1166429999999998    0.0113600000000000
   Li   V    Cr   Fe   Cu   Ni   O 
     9     1     3     1     1     3    18
Direct
  0.9972589999999997  0.3309080000000009  0.0154070000000033
  0.9968890000000030  0.6647839999999974  0.5172469999999976
  0.3359060000000014  0.0097080000000034  0.4829440000000034
  0.3316579999999973  0.3258510000000001  0.0080749999999981
  0.3350840000000019  0.6560259999999971  0.0050499999999971
  0.6670680000000004  0.0034119999999973  0.9826329999999999
  0.6712279999999993  0.0049959999999984  0.5058130000000034
  0.6693739999999977  0.3309989999999985  0.4941120000000012
  0.6788510000000016  0.6656669999999991  0.0011140000000012
  0.6689810000000023  0.6803079999999966  0.5063219999999973
  0.9978180000000023  0.9964709999999997  0.0045590000000004
  0.3351559999999978  0.0024730000000019  0.9972830000000030
  0.3375869999999992  0.6634079999999969  0.5000330000000019
  0.3353589999999969  0.3369939999999971  0.4876689999999968
  0.9920619999999971  0.0014180000000010  0.5032100000000028
  0.9994159999999965  0.6620599999999968  0.9964299999999966
  0.0040910000000025  0.3288900000000012  0.4943870000000032
  0.6605739999999969  0.3353809999999982  0.0061439999999990
  0.8438519999999983  0.8390440000000012  0.7421700000000016
  0.1629840000000016  0.1525979999999976  0.2547769999999971
  0.1642700000000019  0.1498580000000018  0.7666639999999987
  0.1682419999999993  0.4848500000000016  0.2722759999999980
  0.1836470000000006  0.4991040000000027  0.7261409999999984
  0.1741450000000029  0.8411230000000032  0.2414539999999974
  0.1572049999999976  0.8250529999999969  0.7598890000000011
  0.4898919999999976  0.1884599999999992  0.2540880000000030
  0.4762479999999982  0.1699070000000020  0.7481790000000004
  0.4922850000000025  0.4984439999999992  0.2612700000000032
  0.5143449999999987  0.5239929999999973  0.7152820000000020
  0.4971000000000032  0.8258700000000019  0.2626319999999964
  0.5131909999999991  0.8291150000000016  0.7294860000000014
  0.8394559999999984  0.1586130000000026  0.2418290000000027
  0.8414730000000006  0.1628309999999971  0.7558739999999986
  0.8298149999999964  0.5169029999999992  0.2600219999999993
  0.8144109999999998  0.5095699999999965  0.7361440000000030
  0.8230780000000024  0.8249119999999976  0.2633920000000032
 
  0.00000000E+00  0.00000000E+00  0.00000000E+00
  0.00000000E+00  0.00000000E+00  0.00000000E+00
  0.00000000E+00  0.00000000E+00  0.00000000E+00
  0.00000000E+00  0.00000000E+00  0.00000000E+00
  0.00000000E+00  0.00000000E+00  0.00000000E+00
  0.00000000E+00  0.00000000E+00  0.00000000E+00
  0.00000000E+00  0.00000000E+00  0.00000000E+00
  0.00000000E+00  0.00000000E+00  0.00000000E+00
  0.00000000E+00  0.00000000E+00  0.00000000E+00
  0.00000000E+00  0.00000000E+00  0.00000000E+00
  0.00000000E+00  0.00000000E+00  0.00000000E+00
  0.00000000E+00  0.00000000E+00  0.00000000E+00
  0.00000000E+00  0.00000000E+00  0.00000000E+00
  0.00000000E+00  0.00000000E+00  0.00000000E+00
  0.00000000E+00  0.00000000E+00  0.00000000E+00
  0.00000000E+00  0.00000000E+00  0.00000000E+00
  0.00000000E+00  0.00000000E+00  0.00000000E+00
  0.00000000E+00  0.00000000E+00  0.00000000E+00
  0.00000000E+00  0.00000000E+00  0.00000000E+00
  0.00000000E+00  0.00000000E+00  0.00000000E+00
  0.00000000E+00  0.00000000E+00  0.00000000E+00
  0.00000000E+00  0.00000000E+00  0.00000000E+00
  0.00000000E+00  0.00000000E+00  0.00000000E+00
  0.00000000E+00  0.00000000E+00  0.00000000E+00
  0.00000000E+00  0.00000000E+00  0.00000000E+00
  0.00000000E+00  0.00000000E+00  0.00000000E+00
  0.00000000E+00  0.00000000E+00  0.00000000E+00
  0.00000000E+00  0.00000000E+00  0.00000000E+00
  0.00000000E+00  0.00000000E+00  0.00000000E+00
  0.00000000E+00  0.00000000E+00  0.00000000E+00
  0.00000000E+00  0.00000000E+00  0.00000000E+00
  0.00000000E+00  0.00000000E+00  0.00000000E+00
  0.00000000E+00  0.00000000E+00  0.00000000E+00
  0.00000000E+00  0.00000000E+00  0.00000000E+00
  0.00000000E+00  0.00000000E+00  0.00000000E+00
  0.00000000E+00  0.00000000E+00  0.00000000E+00
