Li4 Mn4 O8
1.0
0.000083 4.780510 0.000033
4.148059 -0.000031 4.147961
4.148031 -0.000021 -4.147958
Li Mn O
4 4 8
direct
0.000641 0.523257 0.510104 Li
0.510110 0.764845 0.751669 Li
0.510255 0.765143 0.267465 Li
0.000307 0.007388 0.510213 Li
0.000406 0.014790 0.000164 Mn
0.510412 0.255037 0.260518 Mn
0.000388 0.515286 0.000179 Mn
0.510419 0.255010 0.760010 Mn
0.000415 0.255003 0.235512 O
0.510267 0.490423 0.510348 O
0.000519 0.765163 0.235504 O
0.510447 0.019652 0.510158 O
0.000417 0.254839 0.784940 O
0.510447 0.490325 0.000352 O
0.000589 0.765048 0.784743 O
0.510451 0.019733 0.000188 O
