Li9 Sc3 Mn1 V2 Fe1 Cu2 O18
1.0
-0.019809 6.281580 6.457326
6.369396 -0.048582 6.486211
4.215543 4.175921 -0.001764
Li Sc Mn V Fe Cu O
9 3 1 2 1 2 18
direct
0.011377 0.994117 0.487752 Li
0.016608 0.329531 0.977631 Li
0.012567 0.328449 0.507675 Li
0.000818 0.666431 0.003363 Li
0.997449 0.674763 0.488405 Li
0.318870 0.014134 0.992654 Li
0.322243 0.321588 0.521585 Li
0.322893 0.670383 0.005086 Li
0.673708 0.994301 0.498736 Li
0.312244 0.677705 0.506468 Sc
0.669600 0.991653 0.010285 Sc
0.673065 0.328535 0.493685 Sc
0.012643 0.991465 0.002230 Mn
0.310262 0.339046 0.024975 V
0.671870 0.674143 0.972835 V
0.663919 0.335555 0.003658 Fe
0.317505 0.007114 0.513922 Cu
0.676432 0.668683 0.493042 Cu
0.185734 0.175835 0.238164 O
0.156849 0.146577 0.772148 O
0.180438 0.479763 0.237060 O
0.181790 0.486073 0.757085 O
0.166112 0.833018 0.251464 O
0.163798 0.828124 0.750351 O
0.503786 0.182731 0.227482 O
0.498059 0.177621 0.764631 O
0.513009 0.507917 0.229500 O
0.490387 0.483511 0.768307 O
0.511801 0.821926 0.253231 O
0.518700 0.816066 0.756342 O
0.824961 0.179169 0.238439 O
0.826694 0.171432 0.759920 O
0.807852 0.520372 0.240310 O
0.816065 0.506311 0.757051 O
0.851675 0.852396 0.223486 O
0.818216 0.823562 0.771042 O
