Li9 Fe2 Co1 Cu5 Ni1 O18
1.0
-0.063238 6.749676 5.805695
6.237353 -0.095539 5.836944
4.118247 4.474931 -0.021898
Li Fe Co Cu Ni O
9 2 1 5 1 18
direct
0.016944 0.653287 0.009907 Li
0.011533 0.656940 0.489908 Li
0.333975 0.008924 0.989960 Li
0.347901 0.999235 0.494048 Li
0.343747 0.321011 0.022636 Li
0.338939 0.332222 0.486554 Li
0.322598 0.666005 0.019159 Li
0.649865 0.024100 0.988886 Li
0.644108 0.019728 0.499990 Li
0.015174 0.340517 0.982262 Fe
0.650153 0.692885 0.990447 Fe
0.011786 0.974822 0.005624 Co
0.320018 0.675641 0.500849 Cu
0.669632 0.322380 0.011783 Cu
0.673804 0.673493 0.484596 Cu
0.010976 0.321473 0.502330 Cu
0.656742 0.337219 0.505764 Cu
0.007822 0.978108 0.513852 Ni
0.884426 0.129625 0.759225 O
0.844761 0.842893 0.226498 O
0.823826 0.822122 0.763376 O
0.128653 0.196563 0.249283 O
0.158123 0.147196 0.800176 O
0.147332 0.492288 0.262268 O
0.166415 0.507792 0.738059 O
0.139733 0.855371 0.228465 O
0.174074 0.831802 0.721554 O
0.506298 0.175448 0.246541 O
0.512780 0.174486 0.749745 O
0.472732 0.541520 0.251552 O
0.554191 0.461081 0.760831 O
0.480610 0.835174 0.251197 O
0.533037 0.801633 0.749781 O
0.798230 0.205858 0.247883 O
0.793434 0.523428 0.228732 O
0.855626 0.457729 0.766279 O
