Li4 Ti4 O8                              
   1.00000000000000     
     2.1578040000000001    4.1927260000000004    2.1055240000000000
     4.3179509999999999   -2.0847419999999999   -2.1306940000000001
     0.0217460000000000    4.2002560000000004   -4.2479659999999999
   Li   Ti   O 
     4     4     8
Direct
  0.0104789999999966  0.0029830000000004  0.0058349999999976
  0.5269109999999984  0.2531710000000018  0.1220870000000005
  0.5187379999999990  0.7729229999999987  0.3702049999999986
  0.0188410000000019  0.5080439999999982  0.7829150000000027
  0.0236840000000029  0.5144650000000013  0.2541889999999967
  0.0127600000000001  0.0196159999999992  0.5110469999999978
  0.4996050000000025  0.2613330000000005  0.6420869999999965
  0.5137050000000016  0.7665689999999969  0.8990310000000008
  0.2494990000000001  0.3858779999999982  0.4474500000000035
  0.7686399999999978  0.6404920000000018  0.5765940000000001
  0.2543130000000033  0.3841600000000014  0.9638300000000015
  0.7687650000000019  0.6404909999999973  0.0640450000000001
  0.2581800000000030  0.8968589999999992  0.1893850000000015
  0.7675210000000021  0.1321749999999966  0.3309229999999985
  0.2628100000000018  0.8951179999999965  0.7058269999999993
  0.7698800000000006  0.1239050000000006  0.8221649999999983
 
  0.00000000E+00  0.00000000E+00  0.00000000E+00
  0.00000000E+00  0.00000000E+00  0.00000000E+00
  0.00000000E+00  0.00000000E+00  0.00000000E+00
  0.00000000E+00  0.00000000E+00  0.00000000E+00
  0.00000000E+00  0.00000000E+00  0.00000000E+00
  0.00000000E+00  0.00000000E+00  0.00000000E+00
  0.00000000E+00  0.00000000E+00  0.00000000E+00
  0.00000000E+00  0.00000000E+00  0.00000000E+00
  0.00000000E+00  0.00000000E+00  0.00000000E+00
  0.00000000E+00  0.00000000E+00  0.00000000E+00
  0.00000000E+00  0.00000000E+00  0.00000000E+00
  0.00000000E+00  0.00000000E+00  0.00000000E+00
  0.00000000E+00  0.00000000E+00  0.00000000E+00
  0.00000000E+00  0.00000000E+00  0.00000000E+00
  0.00000000E+00  0.00000000E+00  0.00000000E+00
  0.00000000E+00  0.00000000E+00  0.00000000E+00
