Li9 Sc1 Mn1 Cr1 Co3 Cu1 Ni2 O18         
   1.00000000000000     
     0.0256700000000000    6.2464659999999999    6.1857749999999996
     6.2555370000000003    0.0276710000000000    6.1833840000000002
     4.1806359999999998    4.1728949999999996    0.0086940000000000
   Li   Sc   Mn   Cr   Co   Cu   Ni   O 
     9     1     1     1     3     1     2    18
Direct
  0.0126599999999968  0.0114879999999999  0.9788369999999986
  0.0076970000000003  0.0097260000000006  0.4905339999999967
  0.0086089999999999  0.3233310000000031  0.5018209999999996
  0.3152520000000010  0.0072979999999987  0.0091290000000015
  0.3285290000000032  0.0012919999999994  0.5021369999999976
  0.3314250000000030  0.3244230000000030  0.0156780000000012
  0.3180809999999994  0.3378289999999993  0.4991429999999966
  0.6702739999999991  0.3324929999999995  0.9945510000000013
  0.6613129999999998  0.6630540000000025  0.0069400000000002
  0.6612310000000008  0.9993440000000007  0.5040649999999971
  0.6607160000000007  0.0049989999999980  0.0010010000000023
  0.0040940000000020  0.6635739999999970  0.9960769999999997
  0.0070809999999994  0.3226230000000001  0.0058760000000007
  0.0078359999999975  0.6549830000000014  0.5025040000000018
  0.3423289999999994  0.6679510000000022  0.4924520000000001
  0.6689659999999975  0.3349139999999977  0.4992429999999999
  0.3390240000000020  0.6657020000000031  0.9980040000000017
  0.6656740000000028  0.6649180000000001  0.5039620000000014
  0.8152649999999966  0.1602609999999984  0.7622399999999985
  0.1486080000000030  0.1830270000000027  0.2255320000000012
  0.1501670000000033  0.1836520000000021  0.7733059999999981
  0.1612670000000023  0.5136889999999994  0.2356699999999989
  0.1519929999999974  0.4963499999999996  0.7706749999999971
  0.1683829999999986  0.8103559999999987  0.2777529999999970
  0.1792779999999965  0.8099970000000027  0.7376939999999976
  0.5118760000000009  0.1524730000000005  0.2389820000000000
  0.5177089999999964  0.1597719999999967  0.7586080000000024
  0.4832719999999995  0.5105689999999967  0.2820070000000001
  0.4973680000000016  0.5112219999999965  0.7236400000000032
  0.5105760000000004  0.8379740000000027  0.2447319999999991
  0.5053819999999973  0.8284230000000008  0.7479919999999964
  0.8331220000000030  0.1817169999999990  0.2424930000000032
  0.8426199999999966  0.4909499999999980  0.2358710000000031
  0.8489110000000011  0.5063010000000006  0.7445039999999992
  0.8333480000000009  0.8357189999999974  0.2306129999999982
  0.8300630000000027  0.8376080000000030  0.7657340000000019
 
  0.00000000E+00  0.00000000E+00  0.00000000E+00
  0.00000000E+00  0.00000000E+00  0.00000000E+00
  0.00000000E+00  0.00000000E+00  0.00000000E+00
  0.00000000E+00  0.00000000E+00  0.00000000E+00
  0.00000000E+00  0.00000000E+00  0.00000000E+00
  0.00000000E+00  0.00000000E+00  0.00000000E+00
  0.00000000E+00  0.00000000E+00  0.00000000E+00
  0.00000000E+00  0.00000000E+00  0.00000000E+00
  0.00000000E+00  0.00000000E+00  0.00000000E+00
  0.00000000E+00  0.00000000E+00  0.00000000E+00
  0.00000000E+00  0.00000000E+00  0.00000000E+00
  0.00000000E+00  0.00000000E+00  0.00000000E+00
  0.00000000E+00  0.00000000E+00  0.00000000E+00
  0.00000000E+00  0.00000000E+00  0.00000000E+00
  0.00000000E+00  0.00000000E+00  0.00000000E+00
  0.00000000E+00  0.00000000E+00  0.00000000E+00
  0.00000000E+00  0.00000000E+00  0.00000000E+00
  0.00000000E+00  0.00000000E+00  0.00000000E+00
  0.00000000E+00  0.00000000E+00  0.00000000E+00
  0.00000000E+00  0.00000000E+00  0.00000000E+00
  0.00000000E+00  0.00000000E+00  0.00000000E+00
  0.00000000E+00  0.00000000E+00  0.00000000E+00
  0.00000000E+00  0.00000000E+00  0.00000000E+00
  0.00000000E+00  0.00000000E+00  0.00000000E+00
  0.00000000E+00  0.00000000E+00  0.00000000E+00
  0.00000000E+00  0.00000000E+00  0.00000000E+00
  0.00000000E+00  0.00000000E+00  0.00000000E+00
  0.00000000E+00  0.00000000E+00  0.00000000E+00
  0.00000000E+00  0.00000000E+00  0.00000000E+00
  0.00000000E+00  0.00000000E+00  0.00000000E+00
  0.00000000E+00  0.00000000E+00  0.00000000E+00
  0.00000000E+00  0.00000000E+00  0.00000000E+00
  0.00000000E+00  0.00000000E+00  0.00000000E+00
  0.00000000E+00  0.00000000E+00  0.00000000E+00
  0.00000000E+00  0.00000000E+00  0.00000000E+00
  0.00000000E+00  0.00000000E+00  0.00000000E+00
