Li9 Sc1 Ti3 V1 Cr1 Fe2 Co1 O18
1.0
0.037038 6.316618 6.320952
6.415792 0.011745 6.345971
4.272534 4.223322 0.012133
Li Sc Ti V Cr Fe Co O
9 1 3 1 1 2 1 18
direct
0.007025 0.992695 0.510001 Li
0.000124 0.335273 0.498097 Li
0.024411 0.669409 0.975904 Li
0.321145 0.349537 0.007449 Li
0.333875 0.337118 0.487787 Li
0.322538 0.660730 0.011992 Li
0.324109 0.668648 0.513285 Li
0.658336 0.333305 0.003729 Li
0.667767 0.660810 0.002691 Li
0.664438 0.660508 0.513559 Sc
0.025040 0.650275 0.495878 Ti
0.674274 0.007732 0.491181 Ti
0.652923 0.350782 0.491459 Ti
0.320727 0.005162 0.500242 V
0.329327 0.995980 0.007931 Cr
0.994172 0.005159 0.987402 Fe
0.675394 0.998569 0.984771 Fe
0.002236 0.334704 0.997562 Co
0.185469 0.155329 0.235068 O
0.172310 0.159323 0.767559 O
0.156495 0.513991 0.265844 O
0.154920 0.510409 0.746394 O
0.160983 0.834636 0.247719 O
0.177595 0.841460 0.737122 O
0.506659 0.145072 0.277741 O
0.505521 0.156095 0.734128 O
0.512745 0.484910 0.267045 O
0.512675 0.487210 0.735737 O
0.499670 0.843007 0.241762 O
0.496692 0.847785 0.739652 O
0.818302 0.169188 0.272433 O
0.824254 0.165548 0.751942 O
0.818990 0.488930 0.273764 O
0.841185 0.515585 0.730678 O
0.827184 0.830715 0.275464 O
0.830488 0.834411 0.719029 O
