Li4 Ti4 O8                              
   1.00000000000000     
     2.0518399999999999    4.1538100000000000    2.0523530000000001
     4.0893509999999997   -4.1271089999999999   -0.0394990000000000
     4.1282930000000002   -0.0005480000000000   -4.1282769999999998
   Li   Ti   O 
     4     4     8
Direct
  0.0088020000000029  0.0187239999999989  0.0033839999999969
  0.5038190000000000  0.0187049999999971  0.2250470000000035
  0.9805769999999967  0.4755109999999974  0.9866280000000032
  0.4855840000000029  0.4757010000000008  0.7648999999999972
  0.9798070000000010  0.9801620000000000  0.5000720000000030
  0.4848580000000027  0.9801709999999986  0.7470429999999979
  0.5046490000000006  0.5043539999999993  0.2429550000000020
  0.0096630000000033  0.5043760000000006  0.4898820000000015
  0.2491690000000020  0.7447409999999977  0.1261790000000005
  0.7441469999999981  0.7447080000000028  0.3663329999999974
  0.2471439999999987  0.2471770000000006  0.1497230000000016
  0.7422660000000008  0.2472610000000017  0.3676540000000017
  0.2453140000000005  0.7398079999999965  0.6237040000000036
  0.7403029999999973  0.7397589999999994  0.8638630000000020
  0.2472279999999998  0.2472020000000015  0.6223600000000005
  0.7422430000000020  0.2472830000000030  0.8403180000000035
 
  0.00000000E+00  0.00000000E+00  0.00000000E+00
  0.00000000E+00  0.00000000E+00  0.00000000E+00
  0.00000000E+00  0.00000000E+00  0.00000000E+00
  0.00000000E+00  0.00000000E+00  0.00000000E+00
  0.00000000E+00  0.00000000E+00  0.00000000E+00
  0.00000000E+00  0.00000000E+00  0.00000000E+00
  0.00000000E+00  0.00000000E+00  0.00000000E+00
  0.00000000E+00  0.00000000E+00  0.00000000E+00
  0.00000000E+00  0.00000000E+00  0.00000000E+00
  0.00000000E+00  0.00000000E+00  0.00000000E+00
  0.00000000E+00  0.00000000E+00  0.00000000E+00
  0.00000000E+00  0.00000000E+00  0.00000000E+00
  0.00000000E+00  0.00000000E+00  0.00000000E+00
  0.00000000E+00  0.00000000E+00  0.00000000E+00
  0.00000000E+00  0.00000000E+00  0.00000000E+00
  0.00000000E+00  0.00000000E+00  0.00000000E+00
