Li9 Ti2 Mn1 V1 Cr1 Fe1 Co3 O18
1.0
0.003473 6.336483 6.273838
6.387130 0.035430 6.242216
4.287524 4.232604 -0.005844
Li Ti Mn V Cr Fe Co O
9 2 1 1 1 1 3 18
direct
0.019391 0.018782 0.470506 Li
0.023827 0.319563 0.019474 Li
0.024475 0.315809 0.463069 Li
0.307794 0.023159 0.021845 Li
0.310493 0.024771 0.479542 Li
0.306078 0.327063 0.021546 Li
0.312682 0.327165 0.531386 Li
0.328514 0.666265 0.504686 Li
0.678592 0.335986 0.487043 Li
0.645832 0.008913 0.989642 Ti
0.672529 0.342509 0.985716 Ti
0.005638 0.655667 0.507695 Mn
0.328211 0.666314 0.000234 V
0.662192 0.998239 0.503406 Cr
0.016644 0.017522 0.977418 Fe
0.001665 0.655635 0.999685 Co
0.666778 0.662519 0.014730 Co
0.666958 0.659999 0.498615 Co
0.167284 0.165421 0.249054 O
0.161289 0.161229 0.757395 O
0.177093 0.509387 0.238501 O
0.151698 0.519486 0.730774 O
0.172642 0.819561 0.233973 O
0.176530 0.819605 0.783146 O
0.525645 0.152130 0.234038 O
0.517183 0.152508 0.747043 O
0.496517 0.499134 0.219245 O
0.496888 0.494180 0.781898 O
0.514684 0.841267 0.238183 O
0.513470 0.817828 0.751324 O
0.815687 0.166084 0.242667 O
0.818711 0.163498 0.786777 O
0.825820 0.509790 0.252639 O
0.826883 0.493139 0.763410 O
0.840835 0.836123 0.264373 O
0.822844 0.853752 0.749321 O
