Li9 Sc5 Co2 Cu1 Ni1 O18                 
   1.00000000000000     
     6.0860956578846164   -0.0993708316672550    0.1242775779212495
     1.3660976041254536    7.7813573075002340   -0.0132955324660843
     1.6469740098000478    2.5632884971497409    7.4026907367157406
   Li   Sc   Co   Cu   Ni   O 
     9     5     2     1     1    18
Direct
  0.3576673747897963  0.9631030418818327  0.6627839239779856
  0.1847469061695880  0.9915200959202145  0.3332933230338052
  0.3334741877932620  0.6543467288368893  0.9977307273384728
  0.6682278951995659  0.6730665948822377  0.6472459642077579
  0.1937181394589783  0.6504497509500166  0.6827091649108216
 -0.0100105452145964  0.6723243545216708  0.3598361545378668
  0.6360754834010534  0.3469774339148876 -0.0022260906589820
  0.4726801005043875  0.3527886765807239  0.6762211482362869
  0.3438303237221260  0.3125025087179493  0.3395928497917030
  0.0146596372415667 -0.0050794514049844  0.0095505405119395
  0.5069505032597920  0.0098724260035965  0.0000182500999016
  0.8499089252982408  0.0029925484990312  0.6482183316454251
  0.8313373780301534  0.6497690467815037  0.9781048010124461
  0.4740403379675907  0.6543441443235694  0.3487581696000953
 -0.0174670137737650  0.3569950299251345  0.6577471554527722
  0.8285227380270187  0.3406092983166149  0.3347103565462776
  0.1695183534203414  0.3307471583562143  0.0071693243901159
  0.6643141878738493 -0.0021397036020312  0.3390592054772885
  0.5969376590558682  0.8428094596460453  0.8341067990082109
  0.0718058449753315  0.8431235537450685  0.8300113765751616
  0.8938557803437793  0.8587247906265548  0.4769896972173380
  0.4234017488927193  0.8295563208913475  0.4942389340052236
  0.2593194536894287  0.8331012779974828  0.1583455240474259
  0.7453482684931397  0.8363704890787398  0.1589323970039913
  0.8924192576618631  0.5062196242593705  0.8069112157618882
  0.3863888949872558  0.4835330881570862  0.8599259564153997
  0.2236870140998067  0.5007999869740006  0.5115224964121965
  0.7373481089127952  0.4983308937807600  0.4882385482967009
  0.5931228986117238  0.4989068080287720  0.1721928147040368
  0.0650617912138792  0.4816271535275788  0.1512690940079093
  0.2573367784890611  0.1770352053692424  0.8597724105641006
  0.7793236917003658  0.1672076781110637  0.8310574863087259
  0.6121250246084700  0.1678785371581767  0.4841461131476914
  0.0622932614497263  0.2066140106649074  0.5058901206214197
  0.9459283522081287  0.1700900375715308  0.1667664624457564
  0.4521012574377152  0.1428834010071882  0.1891602533448345
 
  0.00000000E+00  0.00000000E+00  0.00000000E+00
  0.00000000E+00  0.00000000E+00  0.00000000E+00
  0.00000000E+00  0.00000000E+00  0.00000000E+00
  0.00000000E+00  0.00000000E+00  0.00000000E+00
  0.00000000E+00  0.00000000E+00  0.00000000E+00
  0.00000000E+00  0.00000000E+00  0.00000000E+00
  0.00000000E+00  0.00000000E+00  0.00000000E+00
  0.00000000E+00  0.00000000E+00  0.00000000E+00
  0.00000000E+00  0.00000000E+00  0.00000000E+00
  0.00000000E+00  0.00000000E+00  0.00000000E+00
  0.00000000E+00  0.00000000E+00  0.00000000E+00
  0.00000000E+00  0.00000000E+00  0.00000000E+00
  0.00000000E+00  0.00000000E+00  0.00000000E+00
  0.00000000E+00  0.00000000E+00  0.00000000E+00
  0.00000000E+00  0.00000000E+00  0.00000000E+00
  0.00000000E+00  0.00000000E+00  0.00000000E+00
  0.00000000E+00  0.00000000E+00  0.00000000E+00
  0.00000000E+00  0.00000000E+00  0.00000000E+00
  0.00000000E+00  0.00000000E+00  0.00000000E+00
  0.00000000E+00  0.00000000E+00  0.00000000E+00
  0.00000000E+00  0.00000000E+00  0.00000000E+00
  0.00000000E+00  0.00000000E+00  0.00000000E+00
  0.00000000E+00  0.00000000E+00  0.00000000E+00
  0.00000000E+00  0.00000000E+00  0.00000000E+00
  0.00000000E+00  0.00000000E+00  0.00000000E+00
  0.00000000E+00  0.00000000E+00  0.00000000E+00
  0.00000000E+00  0.00000000E+00  0.00000000E+00
  0.00000000E+00  0.00000000E+00  0.00000000E+00
  0.00000000E+00  0.00000000E+00  0.00000000E+00
  0.00000000E+00  0.00000000E+00  0.00000000E+00
  0.00000000E+00  0.00000000E+00  0.00000000E+00
  0.00000000E+00  0.00000000E+00  0.00000000E+00
  0.00000000E+00  0.00000000E+00  0.00000000E+00
  0.00000000E+00  0.00000000E+00  0.00000000E+00
  0.00000000E+00  0.00000000E+00  0.00000000E+00
  0.00000000E+00  0.00000000E+00  0.00000000E+00
