Mn4 O8
1.0
-2.044172 4.013586 -2.046407
2.033167 4.000013 2.033617
2.047356 0.008175 -6.128475
Mn O
4 8
direct
0.001429 0.003584 0.956614 Mn
0.853464 0.591326 0.235671 Mn
0.728962 0.235683 0.484226 Mn
0.598112 0.846718 0.723308 Mn
0.955667 0.452123 0.484162 O
0.639728 0.345060 0.244128 O
0.523808 0.940998 0.475939 O
0.205668 0.249678 0.003211 O
0.120520 0.808006 0.235258 O
0.810175 0.124836 0.715928 O
0.720073 0.752178 0.948966 O
0.349587 0.642632 0.731183 O
