Li2 Mn2 O4
1.0
4.352197 -0.000049 -0.000322
0.000322 -0.000164 -4.349873
2.176205 4.446360 -2.174919
Li Mn O
2 2 4
direct
0.520663 0.520508 0.039122 Li
0.780171 0.260215 0.519924 Li
0.000126 0.000345 0.039565 Mn
0.260326 0.780460 0.519306 Mn
0.240097 0.239927 0.560385 O
0.500018 0.019899 0.040387 O
0.800797 0.800794 0.478825 O
0.020947 0.540686 0.998847 O
