Sc1 Ti1 V1 Cr1 Fe1 Co1 Cu2 Ni1 O18      
   1.00000000000000     
     5.9422470000000001   -0.0273140000000000    0.0307200000000000
     1.3262460000000000    7.6905029999999996    0.0512710000000000
     1.6574100000000000    2.4309280000000002    7.2973980000000003
   Sc   Ti   V    Cr   Fe   Co   Cu   Ni   O 
     1     1     1     1     1     1     2     1    18
Direct
  0.9971570000000014  0.3299779999999970  0.6751379999999969
  0.4714850000000013  0.0311549999999983  0.9940870000000004
  0.0239830000000012  0.6570239999999998  0.3245829999999970
  0.6564699999999988  0.6706170000000000  0.6719220000000021
  0.5095699999999965  0.6521210000000011  0.3366579999999999
  0.9885250000000028  0.0063000000000031  0.0010100000000008
  0.8372529999999969  0.6564809999999994  0.9966110000000015
  0.8246990000000025  0.0081789999999984  0.6589249999999964
  0.6682649999999981  0.0023270000000011  0.3360759999999985
  0.5835440000000034  0.8608830000000012  0.8102859999999978
  0.0279790000000020  0.8634739999999965  0.8359850000000009
  0.9211359999999971  0.8094850000000022  0.4726759999999999
  0.4369360000000029  0.8141019999999983  0.4955759999999998
  0.2731700000000004  0.8220200000000020  0.1605699999999999
  0.7603069999999974  0.8255660000000020  0.1625250000000023
  0.9060830000000024  0.5155359999999973  0.8224099999999979
  0.4190210000000008  0.5170299999999983  0.8292700000000011
  0.2468440000000029  0.5006229999999974  0.4875970000000009
  0.7579500000000010  0.5081860000000020  0.5032920000000018
  0.6003880000000024  0.5033499999999975  0.1740530000000007
  0.0851740000000021  0.5071590000000015  0.1862769999999969
  0.2436369999999997  0.1639580000000009  0.8484959999999973
  0.7220599999999990  0.1737839999999977  0.8569239999999994
  0.6086949999999973  0.1521070000000009  0.5067030000000017
  0.0668780000000027  0.1560819999999978  0.5192509999999970
  0.9241019999999978  0.1437919999999977  0.1553419999999974
  0.4168220000000034  0.1452910000000003  0.1668650000000014
 
  0.00000000E+00  0.00000000E+00  0.00000000E+00
  0.00000000E+00  0.00000000E+00  0.00000000E+00
  0.00000000E+00  0.00000000E+00  0.00000000E+00
  0.00000000E+00  0.00000000E+00  0.00000000E+00
  0.00000000E+00  0.00000000E+00  0.00000000E+00
  0.00000000E+00  0.00000000E+00  0.00000000E+00
  0.00000000E+00  0.00000000E+00  0.00000000E+00
  0.00000000E+00  0.00000000E+00  0.00000000E+00
  0.00000000E+00  0.00000000E+00  0.00000000E+00
  0.00000000E+00  0.00000000E+00  0.00000000E+00
  0.00000000E+00  0.00000000E+00  0.00000000E+00
  0.00000000E+00  0.00000000E+00  0.00000000E+00
  0.00000000E+00  0.00000000E+00  0.00000000E+00
  0.00000000E+00  0.00000000E+00  0.00000000E+00
  0.00000000E+00  0.00000000E+00  0.00000000E+00
  0.00000000E+00  0.00000000E+00  0.00000000E+00
  0.00000000E+00  0.00000000E+00  0.00000000E+00
  0.00000000E+00  0.00000000E+00  0.00000000E+00
  0.00000000E+00  0.00000000E+00  0.00000000E+00
  0.00000000E+00  0.00000000E+00  0.00000000E+00
  0.00000000E+00  0.00000000E+00  0.00000000E+00
  0.00000000E+00  0.00000000E+00  0.00000000E+00
  0.00000000E+00  0.00000000E+00  0.00000000E+00
  0.00000000E+00  0.00000000E+00  0.00000000E+00
  0.00000000E+00  0.00000000E+00  0.00000000E+00
  0.00000000E+00  0.00000000E+00  0.00000000E+00
  0.00000000E+00  0.00000000E+00  0.00000000E+00
