Li9 Ti2 Mn1 V1 Cr1 Fe2 Co1 Cu1 O18
1.0
0.002474 6.318956 6.361959
6.280646 -0.028592 6.393176
4.172608 4.219017 -0.004958
Li Ti Mn V Cr Fe Co Cu O
9 2 1 1 1 2 1 1 18
direct
0.007642 0.992386 0.495443 Li
0.987621 0.330307 0.010297 Li
0.013272 0.672878 0.978112 Li
0.005147 0.674687 0.499328 Li
0.343441 0.344376 0.988090 Li
0.327245 0.667035 0.996514 Li
0.328467 0.664829 0.516809 Li
0.661987 0.339577 0.497934 Li
0.670861 0.657587 0.003642 Li
0.002998 0.347249 0.468577 Ti
0.685322 0.993489 0.972599 Ti
0.657547 0.659309 0.511726 Mn
0.326455 0.351945 0.517360 V
0.328731 0.001368 0.504674 Cr
0.320695 0.991290 0.017186 Fe
0.660066 0.337273 0.004550 Fe
0.669956 0.004378 0.495791 Co
0.004166 0.987324 0.010756 Cu
0.164286 0.164532 0.271632 O
0.186454 0.175650 0.723778 O
0.164532 0.481207 0.283128 O
0.183592 0.488899 0.727500 O
0.167580 0.848068 0.235189 O
0.171655 0.848815 0.747984 O
0.492367 0.170031 0.255121 O
0.492373 0.164816 0.759344 O
0.500043 0.480240 0.261989 O
0.507072 0.488585 0.767932 O
0.492170 0.860224 0.231957 O
0.490588 0.853829 0.744273 O
0.830405 0.159696 0.229620 O
0.825606 0.160811 0.762462 O
0.855151 0.483062 0.256589 O
0.843195 0.473645 0.748430 O
0.807560 0.842069 0.237719 O
0.823753 0.838535 0.765965 O
