Li9 Ti1 Mn1 Cr1 Co6 O18
1.0
-0.004295 6.371130 6.242941
6.071750 0.015380 6.222263
4.063518 4.248564 -0.004999
Li Ti Mn Cr Co O
9 1 1 1 6 18
direct
0.996125 0.988610 0.987162 Li
0.999728 0.987888 0.525872 Li
0.997074 0.683350 0.989790 Li
0.333492 0.990180 0.509449 Li
0.327055 0.671266 0.992264 Li
0.678690 0.001531 0.493463 Li
0.663434 0.328107 0.005916 Li
0.666239 0.326064 0.516333 Li
0.665914 0.676681 0.991420 Li
0.974278 0.329051 0.027113 Ti
0.330865 0.672117 0.501361 Mn
0.997632 0.327545 0.508998 Cr
0.341792 0.335743 0.001051 Co
0.991638 0.688513 0.491204 Co
0.340688 0.986634 0.994170 Co
0.340891 0.334421 0.493255 Co
0.682011 0.001335 0.985384 Co
0.652924 0.683250 0.511039 Co
0.163530 0.186272 0.215589 O
0.170066 0.191091 0.731507 O
0.161931 0.489568 0.266193 O
0.182883 0.497623 0.734063 O
0.184964 0.822428 0.261089 O
0.179818 0.822962 0.731910 O
0.489293 0.179695 0.234699 O
0.493463 0.153113 0.779101 O
0.481224 0.488653 0.282711 O
0.486245 0.508432 0.734849 O
0.494084 0.814973 0.267641 O
0.502888 0.828440 0.749306 O
0.844166 0.175649 0.229064 O
0.841749 0.171019 0.744994 O
0.842552 0.489645 0.259610 O
0.848644 0.498278 0.747561 O
0.823392 0.831349 0.252855 O
0.828639 0.838523 0.752015 O
