Li9 Cr3 Fe3 Cu2 Ni1 O18                 
   1.00000000000000     
    -0.0007810000000000    6.2641770000000001    6.2517600000000000
     6.2091479999999999    0.0126120000000000    6.2383610000000003
     4.1558279999999996    4.1835459999999998   -0.0079610000000000
   Li   Cr   Fe   Cu   Ni   O 
     9     3     3     2     1    18
Direct
  0.9936270000000036  0.6701449999999980  0.5025270000000006
  0.3321839999999980  0.0097159999999974  0.9944259999999971
  0.3479529999999968  0.9983289999999982  0.4853239999999985
  0.3398129999999995  0.3275319999999979  0.5038920000000005
  0.3435940000000031  0.6656329999999997  0.4891879999999986
  0.6601690000000033  0.0043310000000005  0.0032989999999984
  0.6617079999999973  0.0021010000000032  0.4984669999999980
  0.6616069999999965  0.3327140000000028  0.0047190000000015
  0.6581359999999989  0.3309599999999975  0.5065379999999990
  0.9937159999999992  0.0041080000000022  0.0006679999999974
  0.9996629999999982  0.9975099999999983  0.5001000000000033
  0.0002489999999966  0.6674039999999977  0.9969740000000016
  0.3504179999999977  0.3221780000000010  0.9930230000000009
  0.3372239999999991  0.6628449999999972  0.0148099999999971
  0.6593269999999976  0.6740640000000013  0.0033090000000016
  0.9998030000000000  0.3314239999999984  0.9983720000000034
  0.6635070000000027  0.6688100000000006  0.5013270000000034
  0.9999710000000022  0.3316909999999993  0.5083419999999990
  0.5171350000000032  0.8175290000000004  0.2523490000000024
  0.8328279999999992  0.5050099999999986  0.7502080000000007
  0.1548209999999983  0.1714369999999974  0.2530270000000030
  0.1511349999999965  0.1699130000000011  0.7649359999999987
  0.1736670000000018  0.4980440000000002  0.2199620000000024
  0.1640129999999971  0.4856860000000012  0.7892980000000023
  0.1611710000000031  0.8379720000000006  0.2400650000000013
  0.1558100000000024  0.8337069999999969  0.7615139999999982
  0.4821120000000008  0.1818689999999989  0.2290059999999983
  0.4856120000000033  0.1814779999999985  0.7698419999999970
  0.4992110000000025  0.5134710000000027  0.2332759999999965
  0.4877830000000003  0.5051520000000025  0.7607590000000002
  0.5062670000000011  0.8219879999999975  0.7497129999999999
  0.8457289999999986  0.1605100000000022  0.2478690000000014
  0.8486740000000026  0.1561599999999999  0.7425470000000018
  0.8373950000000008  0.5081750000000014  0.2404950000000028
  0.8494099999999989  0.8245440000000031  0.2358699999999985
  0.8445589999999967  0.8258640000000028  0.7539579999999972
 
  0.00000000E+00  0.00000000E+00  0.00000000E+00
  0.00000000E+00  0.00000000E+00  0.00000000E+00
  0.00000000E+00  0.00000000E+00  0.00000000E+00
  0.00000000E+00  0.00000000E+00  0.00000000E+00
  0.00000000E+00  0.00000000E+00  0.00000000E+00
  0.00000000E+00  0.00000000E+00  0.00000000E+00
  0.00000000E+00  0.00000000E+00  0.00000000E+00
  0.00000000E+00  0.00000000E+00  0.00000000E+00
  0.00000000E+00  0.00000000E+00  0.00000000E+00
  0.00000000E+00  0.00000000E+00  0.00000000E+00
  0.00000000E+00  0.00000000E+00  0.00000000E+00
  0.00000000E+00  0.00000000E+00  0.00000000E+00
  0.00000000E+00  0.00000000E+00  0.00000000E+00
  0.00000000E+00  0.00000000E+00  0.00000000E+00
  0.00000000E+00  0.00000000E+00  0.00000000E+00
  0.00000000E+00  0.00000000E+00  0.00000000E+00
  0.00000000E+00  0.00000000E+00  0.00000000E+00
  0.00000000E+00  0.00000000E+00  0.00000000E+00
  0.00000000E+00  0.00000000E+00  0.00000000E+00
  0.00000000E+00  0.00000000E+00  0.00000000E+00
  0.00000000E+00  0.00000000E+00  0.00000000E+00
  0.00000000E+00  0.00000000E+00  0.00000000E+00
  0.00000000E+00  0.00000000E+00  0.00000000E+00
  0.00000000E+00  0.00000000E+00  0.00000000E+00
  0.00000000E+00  0.00000000E+00  0.00000000E+00
  0.00000000E+00  0.00000000E+00  0.00000000E+00
  0.00000000E+00  0.00000000E+00  0.00000000E+00
  0.00000000E+00  0.00000000E+00  0.00000000E+00
  0.00000000E+00  0.00000000E+00  0.00000000E+00
  0.00000000E+00  0.00000000E+00  0.00000000E+00
  0.00000000E+00  0.00000000E+00  0.00000000E+00
  0.00000000E+00  0.00000000E+00  0.00000000E+00
  0.00000000E+00  0.00000000E+00  0.00000000E+00
  0.00000000E+00  0.00000000E+00  0.00000000E+00
  0.00000000E+00  0.00000000E+00  0.00000000E+00
  0.00000000E+00  0.00000000E+00  0.00000000E+00
