Li9 Sc1 Ti2 Mn1 Cr1 Co3 Cu1 O18
1.0
0.015204 6.248281 6.233938
6.469872 0.015184 6.234121
4.325818 4.178534 -0.003051
Li Sc Ti Mn Cr Co Cu O
9 1 2 1 1 3 1 18
direct
0.994692 0.006862 0.004846 Li
0.003414 0.313233 0.005572 Li
0.978807 0.680551 0.020625 Li
0.970945 0.686447 0.513180 Li
0.321785 0.672221 -0.000445 Li
0.689825 0.995951 0.981004 Li
0.695488 0.988043 0.483414 Li
0.704503 0.304152 0.996109 Li
0.690890 0.316332 0.491752 Li
0.341696 0.331274 0.490638 Sc
0.349818 0.330207 0.994944 Ti
0.312419 0.676232 0.501478 Ti
0.669066 0.668695 0.507000 Mn
0.667644 0.668123 0.002727 Cr
0.332998 0.001662 0.501624 Co
0.981367 -0.000905 0.511609 Co
0.334912 0.998114 0.991836 Co
0.998473 0.327973 0.494631 Cu
0.197255 0.165237 0.213340 O
0.172555 0.167105 0.736674 O
0.174793 0.474603 0.238790 O
0.185824 0.496538 0.737304 O
0.158961 0.838228 0.269593 O
0.164826 0.837798 0.713626 O
0.501229 0.186969 0.226343 O
0.489603 0.180790 0.763390 O
0.477426 0.527720 0.264638 O
0.475834 0.518638 0.748731 O
0.502446 0.817327 0.267747 O
0.504362 0.826001 0.748187 O
0.849135 0.156197 0.265503 O
0.859577 0.157963 0.718946 O
0.806245 0.520317 0.284448 O
0.802367 0.519468 0.763349 O
0.812635 0.818585 0.280678 O
0.826180 0.825353 0.766167 O
