Li9 Sc1 Ti3 Fe3 Cu1 Ni1 O18
1.0
-0.005813 6.234351 6.269510
6.416973 -0.002857 6.265857
4.275417 4.150481 0.001255
Li Sc Ti Fe Cu Ni O
9 1 3 3 1 1 18
direct
0.990966 0.999377 0.510088 Li
0.995765 0.661935 0.014033 Li
0.996481 0.663298 0.499258 Li
0.336666 0.009669 0.986766 Li
0.336940 0.327381 0.984638 Li
0.330620 0.326329 0.519018 Li
0.669599 0.009123 0.977049 Li
0.670613 0.322529 0.518090 Li
0.675797 0.668351 0.497562 Li
0.679181 0.666878 0.006121 Sc
0.983252 0.003531 0.009824 Ti
0.339459 0.011871 0.462706 Ti
0.318378 0.653860 0.518700 Ti
0.317935 0.650866 0.022601 Fe
0.658401 0.008688 0.528013 Fe
0.660414 0.334923 0.991423 Fe
0.003916 0.346890 0.484163 Cu
0.009141 0.333461 0.001504 Ni
0.187363 0.151214 0.242768 O
0.165905 0.157224 0.735800 O
0.168114 0.502473 0.247642 O
0.169419 0.508409 0.740830 O
0.173053 0.825776 0.240238 O
0.176082 0.837040 0.740912 O
0.502582 0.155365 0.259854 O
0.512484 0.164983 0.729250 O
0.481700 0.519864 0.260886 O
0.478095 0.515384 0.749733 O
0.482975 0.829773 0.279089 O
0.498034 0.840406 0.737105 O
0.851778 0.152410 0.235384 O
0.850645 0.162341 0.750575 O
0.843263 0.492218 0.250315 O
0.820074 0.495260 0.786665 O
0.841150 0.851136 0.232861 O
0.823761 0.839762 0.748536 O
