Li9 Sc2 Cr4 Fe2 Cu1 O18
1.0
0.027418 6.323622 6.319310
6.338295 0.044095 6.302407
4.252215 4.231050 0.002574
Li Sc Cr Fe Cu O
9 2 4 2 1 18
direct
0.998316 0.994960 0.991893 Li
0.998761 0.673007 0.004746 Li
0.333928 0.004380 0.506726 Li
0.343535 0.325173 0.488857 Li
0.336362 0.666046 0.003696 Li
0.662812 0.005775 0.013157 Li
0.665690 0.011119 0.470471 Li
0.652361 0.327770 0.035216 Li
0.657879 0.666763 0.004652 Li
0.334155 0.658856 0.493971 Sc
0.664943 0.679971 0.500520 Sc
0.997545 0.992176 0.511116 Cr
0.997725 0.338734 0.995044 Cr
0.000047 0.668414 0.489653 Cr
0.667049 0.326842 0.504584 Cr
0.351799 0.002667 0.962233 Fe
0.341167 0.320803 0.037743 Fe
0.004036 0.324402 0.512991 Cu
0.493946 0.170245 0.246060 O
0.170353 0.160084 0.216650 O
0.158374 0.172627 0.768413 O
0.158634 0.490361 0.261713 O
0.152317 0.505522 0.754206 O
0.161100 0.833898 0.255921 O
0.157087 0.852702 0.712040 O
0.494338 0.172340 0.766696 O
0.505417 0.488711 0.271114 O
0.498324 0.493010 0.749869 O
0.497930 0.828261 0.248784 O
0.491745 0.837724 0.755252 O
0.844320 0.173363 0.262921 O
0.846354 0.164090 0.719516 O
0.832314 0.483931 0.268887 O
0.835068 0.515809 0.755422 O
0.838579 0.822966 0.259298 O
0.855689 0.846496 0.699968 O
