Li9 Ti3 V4 Fe1 Cu1 O18
1.0
-0.054776 6.364392 6.347551
6.334512 -0.045999 6.338639
4.213891 4.227849 -0.021475
Li Ti V Fe Cu O
9 3 4 1 1 18
direct
0.010615 0.011858 0.482054 Li
0.338346 0.004900 0.998430 Li
0.342674 0.006277 0.490985 Li
0.357863 0.299237 0.521518 Li
0.344627 0.661005 0.981904 Li
0.351957 0.653450 0.518503 Li
0.650234 0.012387 0.504881 Li
0.646855 0.330145 0.520467 Li
0.642904 0.662163 0.519704 Li
0.013330 0.668397 0.986991 Ti
0.007909 0.683561 0.479524 Ti
0.638025 0.675904 0.003418 Ti
0.000905 0.008221 -0.001231 V
0.659552 0.003585 0.989872 V
0.003693 0.330217 0.003020 V
0.994600 0.339233 0.492059 V
0.640520 0.333146 0.010346 Fe
0.348961 0.320052 0.992270 Cu
0.152501 0.181070 0.242877 O
0.150727 0.172274 0.754751 O
0.139113 0.522354 0.259935 O
0.145001 0.522840 0.738345 O
0.148391 0.832185 0.268494 O
0.146754 0.830545 0.777384 O
0.516006 0.152872 0.254241 O
0.518454 0.145208 0.756437 O
0.519481 0.500554 0.232695 O
0.506842 0.492734 0.761753 O
0.521439 0.823550 0.230656 O
0.509912 0.817028 0.771726 O
0.838349 0.172686 0.220302 O
0.827127 0.165370 0.767250 O
0.846020 0.511286 0.220069 O
0.837023 0.506469 0.752983 O
0.847623 0.833050 0.231583 O
0.835666 0.814187 0.763802 O
