Li9 Mn1 V1 Fe2 Co4 Cu1 O18
1.0
-0.017134 6.160718 6.506705
6.195700 0.015964 6.473175
4.122877 4.077552 0.019832
Li Mn V Fe Co Cu O
9 1 1 2 4 1 18
direct
0.015648 0.995789 0.496212 Li
0.025213 0.355178 0.964375 Li
0.022646 0.655846 0.986128 Li
0.025009 0.659069 0.494355 Li
0.309815 0.991667 0.522422 Li
0.316892 0.352368 0.987633 Li
0.325526 0.358222 0.499283 Li
0.314961 0.652193 0.023307 Li
0.309484 0.659649 0.532582 Li
0.315395 0.007690 0.011649 Mn
0.661124 -0.000033 0.503931 V
0.663898 0.003112 -0.000272 Fe
0.664629 0.655137 0.507323 Fe
0.007987 0.994353 0.995737 Co
0.023699 0.336788 0.472812 Co
0.668427 0.332195 0.997340 Co
0.671912 0.656542 0.005472 Co
0.672443 0.334161 0.488602 Cu
0.169133 0.510984 0.736903 O
0.170249 0.160969 0.244210 O
0.160933 0.155557 0.766084 O
0.159473 0.487185 0.272029 O
0.177399 0.852828 0.221955 O
0.147311 0.842675 0.785513 O
0.526538 0.168169 0.238318 O
0.489462 0.144151 0.769980 O
0.529956 0.483628 0.230471 O
0.520871 0.494587 0.743614 O
0.503151 0.843221 0.239801 O
0.510658 0.844486 0.734507 O
0.819678 0.153692 0.249931 O
0.817792 0.169080 0.764262 O
0.839896 0.512512 0.247803 O
0.818790 0.480876 0.763371 O
0.812836 0.840671 0.265888 O
0.811164 0.854803 0.736472 O
