Sc1 Ti1 V1 Cr1 Fe1 Co1 Cu2 Ni1 O18      
   1.00000000000000     
     6.0388520000000003    0.0661300000000000   -0.0878200000000000
     1.5631240000000000    7.6693740000000004   -0.1074060000000000
     1.4820510000000000    2.4930110000000001    7.2302670000000004
   Sc   Ti   V    Cr   Fe   Co   Cu   Ni   O 
     1     1     1     1     1     1     2     1    18
Direct
  0.4788119999999978  0.0000440000000026  0.0075810000000018
  0.8416679999999985  0.6447920000000025  0.0003740000000008
  0.8667700000000025  0.9806349999999995  0.6651370000000014
  0.4901499999999999  0.3346980000000030  0.6659590000000009
  0.6491609999999994  0.9899399999999972  0.3441100000000006
  0.8322509999999994  0.3412280000000010  0.3366609999999994
  0.0065290000000005  0.0137569999999982  0.0033239999999992
  0.3230130000000031  0.3389540000000011  0.3309860000000029
  0.6609380000000016  0.3410420000000016  0.9965100000000007
  0.4199940000000026  0.1763819999999967  0.1755899999999997
  0.8765980000000013  0.1800780000000017  0.1949600000000018
  0.0702259999999981  0.5049959999999984  0.1658430000000024
  0.6031979999999990  0.5269690000000011  0.1497809999999973
  0.7668540000000021  0.8511420000000030  0.1547180000000026
  0.2405389999999983  0.8466600000000000  0.1534219999999991
  0.0429450000000031  0.1446680000000029  0.5243260000000021
  0.5850000000000009  0.1575759999999988  0.5126879999999971
  0.7360770000000016  0.4733879999999999  0.5003559999999965
  0.2581709999999973  0.4829459999999983  0.4960669999999965
  0.4310589999999976  0.8408390000000026  0.4871419999999986
  0.9017869999999988  0.8487069999999974  0.5104770000000016
  0.7438610000000025  0.1579750000000004  0.8282080000000036
  0.2508940000000024  0.1679680000000019  0.8339840000000009
  0.4254910000000010  0.4927819999999983  0.8251350000000031
  0.9104560000000035  0.5063490000000002  0.8469559999999987
  0.0652690000000007  0.8316110000000023  0.8184150000000017
  0.6236430000000013  0.8414590000000004  0.8318939999999984
 
  0.00000000E+00  0.00000000E+00  0.00000000E+00
  0.00000000E+00  0.00000000E+00  0.00000000E+00
  0.00000000E+00  0.00000000E+00  0.00000000E+00
  0.00000000E+00  0.00000000E+00  0.00000000E+00
  0.00000000E+00  0.00000000E+00  0.00000000E+00
  0.00000000E+00  0.00000000E+00  0.00000000E+00
  0.00000000E+00  0.00000000E+00  0.00000000E+00
  0.00000000E+00  0.00000000E+00  0.00000000E+00
  0.00000000E+00  0.00000000E+00  0.00000000E+00
  0.00000000E+00  0.00000000E+00  0.00000000E+00
  0.00000000E+00  0.00000000E+00  0.00000000E+00
  0.00000000E+00  0.00000000E+00  0.00000000E+00
  0.00000000E+00  0.00000000E+00  0.00000000E+00
  0.00000000E+00  0.00000000E+00  0.00000000E+00
  0.00000000E+00  0.00000000E+00  0.00000000E+00
  0.00000000E+00  0.00000000E+00  0.00000000E+00
  0.00000000E+00  0.00000000E+00  0.00000000E+00
  0.00000000E+00  0.00000000E+00  0.00000000E+00
  0.00000000E+00  0.00000000E+00  0.00000000E+00
  0.00000000E+00  0.00000000E+00  0.00000000E+00
  0.00000000E+00  0.00000000E+00  0.00000000E+00
  0.00000000E+00  0.00000000E+00  0.00000000E+00
  0.00000000E+00  0.00000000E+00  0.00000000E+00
  0.00000000E+00  0.00000000E+00  0.00000000E+00
  0.00000000E+00  0.00000000E+00  0.00000000E+00
  0.00000000E+00  0.00000000E+00  0.00000000E+00
  0.00000000E+00  0.00000000E+00  0.00000000E+00
