Li9 Sc1 V3 Cr1 Co2 Cu2 O18
1.0
-0.024815 6.275171 6.213762
6.409385 -0.003999 6.193774
4.248166 4.146219 0.022202
Li Sc V Cr Co Cu O
9 1 3 1 2 2 18
direct
0.980093 0.362489 0.997690 Li
0.981345 0.365970 0.492305 Li
0.992790 0.641391 0.519322 Li
0.317643 0.356177 0.992168 Li
0.310597 0.360402 0.496506 Li
0.333056 0.655452 0.012441 Li
0.666753 0.995116 0.513082 Li
0.682259 0.637854 0.002660 Li
0.689735 0.640384 0.503094 Li
0.993898 0.005880 0.014314 Sc
0.673783 0.987869 0.998387 V
0.340886 0.001362 0.985802 V
0.340457 0.007339 0.489485 V
0.661648 0.344716 0.996735 Cr
-0.001981 0.649267 0.016497 Co
0.666936 0.334900 0.497167 Co
0.003766 0.999273 0.493754 Cu
0.335026 0.654206 0.508202 Cu
0.191360 0.143528 0.229401 O
0.189029 0.158431 0.733628 O
0.152967 0.517514 0.224179 O
0.156939 0.523087 0.758713 O
0.181471 0.840697 0.228002 O
0.174919 0.865199 0.728557 O
0.504167 0.146079 0.249039 O
0.514005 0.149321 0.764600 O
0.513310 0.474199 0.264279 O
0.515085 0.482428 0.732090 O
0.484424 0.842503 0.253585 O
0.480029 0.855628 0.760716 O
0.822635 0.171021 0.258241 O
0.816335 0.179021 0.761528 O
0.826402 0.489800 0.258172 O
0.823447 0.492918 0.763425 O
0.837480 0.829220 0.234964 O
0.847304 0.839361 0.767270 O
