Li9 V1 Fe4 Co2 Ni2 O18                  
   1.00000000000000     
     0.0234620000000000    6.2128730000000001    6.3282920000000003
     6.2000339999999996    0.0439570000000000    6.3076449999999999
     4.1544800000000004    4.1493620000000000    0.0082420000000000
   Li   V    Fe   Co   Ni   O 
     9     1     4     2     2    18
Direct
  0.0058009999999982  0.0168389999999974  0.9684510000000017
  0.0055850000000035  0.0095519999999993  0.5068079999999995
  0.0022900000000021  0.3198769999999982  0.5009090000000000
  0.3277750000000026  0.0076749999999990  0.0054569999999998
  0.3317639999999997  0.9870370000000008  0.5028659999999974
  0.3307649999999995  0.3129679999999979  0.0142140000000026
  0.3379019999999997  0.6706429999999983  0.9819490000000002
  0.6483869999999996  0.0144179999999992  0.9933839999999989
  0.6658630000000016  0.3217649999999992  0.5145120000000034
  0.0162350000000018  0.6828620000000001  0.4732569999999967
  0.0098789999999980  0.6740240000000028  0.9963010000000025
  0.3321789999999964  0.3170000000000002  0.5160010000000028
  0.6657110000000017  0.3254519999999985  0.9918910000000025
  0.6553219999999982  0.6726389999999967  0.0077160000000021
  0.0015440000000027  0.3214430000000021  0.0158899999999988
  0.6638519999999986  0.0033869999999965  0.4975370000000012
  0.3433989999999980  0.6631900000000002  0.5072749999999999
  0.6695899999999995  0.6627030000000005  0.5033030000000025
  0.1485869999999991  0.1771000000000029  0.2376080000000016
  0.1582780000000028  0.1833969999999994  0.7620399999999989
  0.1549529999999990  0.5094190000000012  0.2663259999999994
  0.1694180000000003  0.5099159999999969  0.7354300000000009
  0.1566090000000031  0.8193029999999979  0.2740200000000002
  0.1614160000000027  0.8240100000000012  0.7591150000000013
  0.5011390000000020  0.1613290000000021  0.2693289999999990
  0.5043280000000010  0.1612050000000025  0.7244620000000026
  0.5070600000000027  0.4980710000000030  0.2280850000000001
  0.5151329999999987  0.4932090000000002  0.7559719999999999
  0.5053010000000029  0.8188120000000012  0.2571310000000011
  0.5222309999999979  0.8374710000000007  0.7329009999999982
  0.8076960000000000  0.1704769999999982  0.2420809999999989
  0.8140670000000014  0.1817490000000035  0.7735589999999988
  0.8460630000000009  0.5109840000000005  0.2160610000000034
  0.8452649999999977  0.5034800000000033  0.7619990000000030
  0.8367780000000025  0.8238979999999998  0.2719170000000020
  0.8318330000000032  0.8326940000000036  0.7342409999999973
 
  0.00000000E+00  0.00000000E+00  0.00000000E+00
  0.00000000E+00  0.00000000E+00  0.00000000E+00
  0.00000000E+00  0.00000000E+00  0.00000000E+00
  0.00000000E+00  0.00000000E+00  0.00000000E+00
  0.00000000E+00  0.00000000E+00  0.00000000E+00
  0.00000000E+00  0.00000000E+00  0.00000000E+00
  0.00000000E+00  0.00000000E+00  0.00000000E+00
  0.00000000E+00  0.00000000E+00  0.00000000E+00
  0.00000000E+00  0.00000000E+00  0.00000000E+00
  0.00000000E+00  0.00000000E+00  0.00000000E+00
  0.00000000E+00  0.00000000E+00  0.00000000E+00
  0.00000000E+00  0.00000000E+00  0.00000000E+00
  0.00000000E+00  0.00000000E+00  0.00000000E+00
  0.00000000E+00  0.00000000E+00  0.00000000E+00
  0.00000000E+00  0.00000000E+00  0.00000000E+00
  0.00000000E+00  0.00000000E+00  0.00000000E+00
  0.00000000E+00  0.00000000E+00  0.00000000E+00
  0.00000000E+00  0.00000000E+00  0.00000000E+00
  0.00000000E+00  0.00000000E+00  0.00000000E+00
  0.00000000E+00  0.00000000E+00  0.00000000E+00
  0.00000000E+00  0.00000000E+00  0.00000000E+00
  0.00000000E+00  0.00000000E+00  0.00000000E+00
  0.00000000E+00  0.00000000E+00  0.00000000E+00
  0.00000000E+00  0.00000000E+00  0.00000000E+00
  0.00000000E+00  0.00000000E+00  0.00000000E+00
  0.00000000E+00  0.00000000E+00  0.00000000E+00
  0.00000000E+00  0.00000000E+00  0.00000000E+00
  0.00000000E+00  0.00000000E+00  0.00000000E+00
  0.00000000E+00  0.00000000E+00  0.00000000E+00
  0.00000000E+00  0.00000000E+00  0.00000000E+00
  0.00000000E+00  0.00000000E+00  0.00000000E+00
  0.00000000E+00  0.00000000E+00  0.00000000E+00
  0.00000000E+00  0.00000000E+00  0.00000000E+00
  0.00000000E+00  0.00000000E+00  0.00000000E+00
  0.00000000E+00  0.00000000E+00  0.00000000E+00
  0.00000000E+00  0.00000000E+00  0.00000000E+00
