Li9 Ti2 Mn1 V1 Cr1 Fe1 Cu1 Ni2 O18
1.0
0.006185 6.258132 6.347397
6.315116 0.011657 6.342942
4.213554 4.171056 0.004895
Li Ti Mn V Cr Fe Cu Ni O
9 2 1 1 1 1 1 2 18
direct
0.993020 0.975511 0.525355 Li
0.004386 0.338564 0.989814 Li
0.998086 0.341712 0.494490 Li
0.967302 0.667927 0.547206 Li
0.338158 0.679359 0.484092 Li
0.666129 0.967311 0.003602 Li
0.672584 0.977894 0.541523 Li
0.669964 0.688009 0.983684 Li
0.667573 0.681976 0.484758 Li
0.979843 0.979227 0.045368 Ti
0.692605 0.334559 0.489286 Ti
0.332413 0.673097 0.001672 Mn
0.324102 0.328301 0.512742 V
0.339724 0.328549 0.994207 Cr
0.684997 0.349522 0.974428 Fe
0.336518 0.990467 0.023243 Cu
0.991530 0.663574 0.988489 Ni
0.343010 0.995581 0.488652 Ni
0.194477 0.165586 0.225450 O
0.185249 0.179990 0.723740 O
0.190130 0.497856 0.224615 O
0.184986 0.488243 0.742622 O
0.135090 0.846029 0.250330 O
0.159409 0.836822 0.782898 O
0.489615 0.189138 0.249706 O
0.504532 0.197819 0.709415 O
0.491477 0.490036 0.250478 O
0.514754 0.480313 0.738763 O
0.489198 0.836709 0.258725 O
0.472506 0.831172 0.784218 O
0.830908 0.171754 0.236359 O
0.831493 0.176075 0.741420 O
0.827305 0.487048 0.258514 O
0.825723 0.496530 0.753388 O
0.836484 0.839615 0.236301 O
0.834720 0.828126 0.760447 O
