Li9 Sc4 Co2 Ni3 O18                     
   1.00000000000000     
     6.0634789649834300   -0.0143420655161485   -0.0008345170652843
     1.6493631688249524    7.6288981548571266   -0.0545463771095176
     1.4351273934839239    2.4875434019973857    7.3221601493014301
   Li   Sc   Co   Ni   O 
     9     4     2     3    18
Direct
  0.8434132256170725  0.9617474672755902  0.6833673902433827
  0.1584423695051810  0.9761091827840074  0.3617108987058459
  0.3339266578991741  0.6550501082789951  0.9908493021317801
  0.6588371441354118  0.6570503823116303  0.6754922365890693
  0.1572564879219408  0.6870070941133350  0.6538483410144152
  0.0089979395245708  0.6631663388131218  0.3520575783992748
  0.1804401088682737  0.3591328693978481  0.9896435017217069
  0.0228714005782391  0.3295596095165415  0.6625801610324455
  0.3175481052838688  0.0217621108621085  0.6365652899265136
  0.5001682609255873  0.0075299000731431  0.9898133928242333
  0.0141067448816520 -0.0001035193084184  0.9945297426008849
  0.6681969246825867 -0.0209812884651777  0.3575518533412261
  0.8458679444736495  0.3373714982315971  0.3358100192881081
  0.8392585248092699  0.6632962946396020  0.9979022051473263
  0.3312850580937537  0.3398836901285119  0.3279095631608164
  0.4816319495582424  0.6680654353455976  0.3387272454745353
  0.6631958003359417  0.3407564534801095  0.9962260127006275
  0.4940229167968934  0.3390806600523624  0.6643225309028684
  0.9118668317473891  0.8399635269943394  0.5000955069284088
  0.6169361769298899  0.8121331968865001  0.8594371033239193
  0.0609760895573926  0.8057598657795515  0.8562791767796639
  0.4158330205861200  0.8267103177481639  0.4938165818015338
  0.2629892374170095  0.8485791325936057  0.1652986946319674
  0.7576999741186236  0.8305301012731765  0.1560685134690156
  0.8938214197433165  0.5015663130460680  0.8698758814451869
  0.4404616884633419  0.4832250700684108  0.8426068486356941
  0.2570907015793965  0.4880011816124454  0.4845119256727325
  0.7188055576197236  0.5086971525282439  0.4911055819124406
  0.5738441577765198  0.5098482407710260  0.1742323754724980
  0.0682374054445834  0.5063343771453865  0.1669809236831528
  0.2538952415624162  0.1523043437098873  0.8287817644357363
  0.7555074159763038  0.1661485441629400  0.8324992971230077
  0.5634276270222768  0.1831665913400131  0.4823454440902861
  0.1106901642456992  0.1878090023624035  0.4704764956153015
  0.8855528249978619  0.1718381428719498  0.1605942889370769
  0.4328939013208264  0.1918986115753959  0.1560893308373168
 
  0.00000000E+00  0.00000000E+00  0.00000000E+00
  0.00000000E+00  0.00000000E+00  0.00000000E+00
  0.00000000E+00  0.00000000E+00  0.00000000E+00
  0.00000000E+00  0.00000000E+00  0.00000000E+00
  0.00000000E+00  0.00000000E+00  0.00000000E+00
  0.00000000E+00  0.00000000E+00  0.00000000E+00
  0.00000000E+00  0.00000000E+00  0.00000000E+00
  0.00000000E+00  0.00000000E+00  0.00000000E+00
  0.00000000E+00  0.00000000E+00  0.00000000E+00
  0.00000000E+00  0.00000000E+00  0.00000000E+00
  0.00000000E+00  0.00000000E+00  0.00000000E+00
  0.00000000E+00  0.00000000E+00  0.00000000E+00
  0.00000000E+00  0.00000000E+00  0.00000000E+00
  0.00000000E+00  0.00000000E+00  0.00000000E+00
  0.00000000E+00  0.00000000E+00  0.00000000E+00
  0.00000000E+00  0.00000000E+00  0.00000000E+00
  0.00000000E+00  0.00000000E+00  0.00000000E+00
  0.00000000E+00  0.00000000E+00  0.00000000E+00
  0.00000000E+00  0.00000000E+00  0.00000000E+00
  0.00000000E+00  0.00000000E+00  0.00000000E+00
  0.00000000E+00  0.00000000E+00  0.00000000E+00
  0.00000000E+00  0.00000000E+00  0.00000000E+00
  0.00000000E+00  0.00000000E+00  0.00000000E+00
  0.00000000E+00  0.00000000E+00  0.00000000E+00
  0.00000000E+00  0.00000000E+00  0.00000000E+00
  0.00000000E+00  0.00000000E+00  0.00000000E+00
  0.00000000E+00  0.00000000E+00  0.00000000E+00
  0.00000000E+00  0.00000000E+00  0.00000000E+00
  0.00000000E+00  0.00000000E+00  0.00000000E+00
  0.00000000E+00  0.00000000E+00  0.00000000E+00
  0.00000000E+00  0.00000000E+00  0.00000000E+00
  0.00000000E+00  0.00000000E+00  0.00000000E+00
  0.00000000E+00  0.00000000E+00  0.00000000E+00
  0.00000000E+00  0.00000000E+00  0.00000000E+00
  0.00000000E+00  0.00000000E+00  0.00000000E+00
  0.00000000E+00  0.00000000E+00  0.00000000E+00
