Li9 Mn4 V1 Co1 Cu3 O18                  
   1.00000000000000     
    -0.0094060000000000    6.2210590000000003    6.3825779999999996
     6.2618900000000002   -0.0243220000000000    6.3981810000000001
     4.1570179999999999    4.1395970000000002    0.0016100000000000
   Li   Mn   V    Co   Cu   O 
     9     4     1     1     3    18
Direct
  0.9804329999999979  0.0227229999999992  0.9864630000000005
  0.9869429999999966  0.3178150000000031  0.5219379999999987
  0.3457870000000014  0.0025770000000023  0.9944080000000000
  0.3484550000000013  0.3203930000000028  0.9996140000000011
  0.6731490000000022  0.0058580000000035  0.9919149999999988
  0.6595709999999997  0.0183040000000005  0.4940229999999985
  0.6741790000000023  0.3158239999999992  0.0002709999999979
  0.6701160000000002  0.3124159999999989  0.5189760000000021
  0.6608820000000009  0.6700930000000014  0.4903669999999991
  0.0044320000000013  0.3268219999999999  0.0157230000000013
  0.3434590000000028  0.3138390000000015  0.5136979999999980
  0.3373309999999989  0.6660260000000022  0.9943949999999973
  0.3437920000000005  0.6647340000000028  0.4964760000000012
  0.9827799999999982  0.6718499999999992  0.4936009999999982
  0.0002920000000017  0.6683200000000014  0.9956930000000028
  0.9916259999999966  0.0168839999999975  0.5087440000000001
  0.3397050000000021  0.0017640000000014  0.4875550000000004
  0.6626990000000035  0.6756719999999987  0.9948880000000031
  0.4822490000000030  0.8194510000000008  0.7731589999999997
  0.8281440000000018  0.1659440000000032  0.7515220000000014
  0.1647660000000002  0.1536619999999971  0.2797279999999986
  0.1663569999999979  0.1919639999999987  0.7505639999999971
  0.1625050000000030  0.5211370000000031  0.2391239999999968
  0.1575869999999995  0.4990600000000001  0.7522799999999989
  0.1762020000000035  0.7972529999999978  0.2768999999999977
  0.1584590000000006  0.8194870000000023  0.7640630000000002
  0.4824709999999968  0.1749140000000011  0.2785259999999994
  0.4884770000000032  0.1757539999999977  0.7350190000000012
  0.4778980000000033  0.4820440000000019  0.2820800000000006
  0.4782259999999994  0.5203089999999975  0.7511409999999970
  0.5031239999999997  0.8177430000000001  0.2457199999999986
  0.8535430000000019  0.1785009999999971  0.2294499999999999
  0.8506720000000030  0.5164609999999996  0.2036280000000019
  0.8415910000000011  0.5277969999999996  0.7255710000000022
  0.8545129999999972  0.8179900000000018  0.2364049999999978
  0.8675840000000008  0.8286140000000017  0.7263739999999999
 
  0.00000000E+00  0.00000000E+00  0.00000000E+00
  0.00000000E+00  0.00000000E+00  0.00000000E+00
  0.00000000E+00  0.00000000E+00  0.00000000E+00
  0.00000000E+00  0.00000000E+00  0.00000000E+00
  0.00000000E+00  0.00000000E+00  0.00000000E+00
  0.00000000E+00  0.00000000E+00  0.00000000E+00
  0.00000000E+00  0.00000000E+00  0.00000000E+00
  0.00000000E+00  0.00000000E+00  0.00000000E+00
  0.00000000E+00  0.00000000E+00  0.00000000E+00
  0.00000000E+00  0.00000000E+00  0.00000000E+00
  0.00000000E+00  0.00000000E+00  0.00000000E+00
  0.00000000E+00  0.00000000E+00  0.00000000E+00
  0.00000000E+00  0.00000000E+00  0.00000000E+00
  0.00000000E+00  0.00000000E+00  0.00000000E+00
  0.00000000E+00  0.00000000E+00  0.00000000E+00
  0.00000000E+00  0.00000000E+00  0.00000000E+00
  0.00000000E+00  0.00000000E+00  0.00000000E+00
  0.00000000E+00  0.00000000E+00  0.00000000E+00
  0.00000000E+00  0.00000000E+00  0.00000000E+00
  0.00000000E+00  0.00000000E+00  0.00000000E+00
  0.00000000E+00  0.00000000E+00  0.00000000E+00
  0.00000000E+00  0.00000000E+00  0.00000000E+00
  0.00000000E+00  0.00000000E+00  0.00000000E+00
  0.00000000E+00  0.00000000E+00  0.00000000E+00
  0.00000000E+00  0.00000000E+00  0.00000000E+00
  0.00000000E+00  0.00000000E+00  0.00000000E+00
  0.00000000E+00  0.00000000E+00  0.00000000E+00
  0.00000000E+00  0.00000000E+00  0.00000000E+00
  0.00000000E+00  0.00000000E+00  0.00000000E+00
  0.00000000E+00  0.00000000E+00  0.00000000E+00
  0.00000000E+00  0.00000000E+00  0.00000000E+00
  0.00000000E+00  0.00000000E+00  0.00000000E+00
  0.00000000E+00  0.00000000E+00  0.00000000E+00
  0.00000000E+00  0.00000000E+00  0.00000000E+00
  0.00000000E+00  0.00000000E+00  0.00000000E+00
  0.00000000E+00  0.00000000E+00  0.00000000E+00
