Li9 Ti1 V2 Cr1 Co2 Ni3 O18
1.0
-0.018817 6.188600 6.302337
6.129041 0.007675 6.276038
4.124212 4.146676 -0.033262
Li Ti V Cr Co Ni O
9 1 2 1 2 3 18
direct
0.992616 0.999497 0.012566 Li
0.003790 0.003201 0.500661 Li
0.987869 0.343764 0.994230 Li
0.983712 0.670733 0.514658 Li
0.324233 0.326004 0.005975 Li
0.337979 0.673587 0.988793 Li
0.671245 0.991016 0.508692 Li
0.681136 0.340851 0.980151 Li
0.683659 0.661801 0.973407 Li
0.329541 0.334182 0.472031 Ti
0.317503 0.674690 0.501664 V
0.679549 0.316481 0.490002 V
0.669500 0.667575 0.504461 Cr
0.998456 0.666297 0.002705 Co
0.330917 -0.000520 0.509101 Co
0.996319 0.328456 0.508810 Ni
0.335618 0.001702 0.002875 Ni
0.668885 0.001818 -0.000823 Ni
0.178284 0.152430 0.273966 O
0.180839 0.167325 0.738389 O
0.168959 0.497054 0.250050 O
0.172293 0.512838 0.738137 O
0.189224 0.822431 0.259471 O
0.185837 0.830187 0.734708 O
0.483906 0.161992 0.271841 O
0.497562 0.180538 0.731199 O
0.487005 0.486851 0.277635 O
0.504886 0.510996 0.700027 O
0.488279 0.839917 0.274411 O
0.497302 0.840061 0.736623 O
0.820984 0.179077 0.264058 O
0.815751 0.177935 0.745339 O
0.824165 0.494603 0.267797 O
0.829194 0.504471 0.736673 O
0.835391 0.821188 0.244293 O
0.847614 0.818972 0.785424 O
