Li4 Ti2 Ni2 O8
1.0
0.000021 2.096410 2.096206
8.203647 -4.252703 4.252400
2.031963 4.218773 -2.122117
Li Ti Ni O
4 2 2 8
direct
0.002275 0.004067 0.997788 Li
0.253074 0.126575 0.495338 Li
0.747731 0.386576 0.505053 Li
0.244523 0.610948 0.511270 Li
0.499389 0.252102 0.005306 Ti
0.746002 0.879986 0.509221 Ti
0.004294 0.504513 0.992959 Ni
0.502141 0.746228 0.997593 Ni
0.618828 0.562991 0.763943 O
0.873649 0.701285 0.254576 O
0.132240 0.820142 0.737157 O
0.361311 0.931831 0.278980 O
0.629368 0.056968 0.742933 O
0.892712 0.190806 0.215946 O
0.116979 0.300222 0.767326 O
0.386977 0.427190 0.227200 O
