Li20 Mn36 O72
1.0
4.035223 8.699678 4.173139
8.060857 -4.356386 -4.182992
6.095704 6.405935 -12.348765
Li Mn O
20 36 72
direct
0.246939 0.247900 0.182952 Li
0.246893 0.264903 0.826079 Li
0.247553 0.747537 0.183325 Li
0.246975 0.764575 0.825739 Li
0.765526 0.236639 0.182437 Li
0.749739 0.257872 0.828331 Li
0.765353 0.736556 0.182464 Li
0.750045 0.757704 0.828057 Li
0.002843 0.335782 0.883504 Li
0.003899 0.834785 0.884153 Li
0.484157 0.338879 0.229206 Li
0.495824 0.337960 0.887418 Li
0.484535 0.838692 0.229378 Li
0.495400 0.836999 0.888070 Li
0.242505 0.426098 0.934931 Li
0.242527 0.926339 0.934732 Li
0.759899 0.395691 0.286551 Li
0.739425 0.423463 0.934198 Li
0.759803 0.895796 0.286441 Li
0.738663 0.923252 0.934603 Li
0.494346 0.494894 0.340719 Mn
0.509032 0.499179 0.663198 Mn
0.499372 0.502417 0.998752 Mn
0.494059 0.994861 0.340669 Mn
0.509328 0.999134 0.663251 Mn
0.499346 0.002457 0.998837 Mn
0.994828 0.490656 0.332221 Mn
0.004535 0.499348 0.654972 Mn
0.995285 0.501786 0.993497 Mn
0.994845 0.990472 0.332313 Mn
0.005006 0.999801 0.654965 Mn
0.995254 0.001683 0.993686 Mn
0.239651 0.075908 0.063965 Mn
0.242148 0.064726 0.402708 Mn
0.264352 0.107041 0.700423 Mn
0.239406 0.575656 0.064254 Mn
0.242095 0.564189 0.402936 Mn
0.264086 0.607403 0.700075 Mn
0.745733 0.083157 0.056346 Mn
0.745166 0.069804 0.403095 Mn
0.764290 0.096683 0.702829 Mn
0.745699 0.583281 0.056251 Mn
0.745229 0.569928 0.403113 Mn
0.764349 0.597539 0.702151 Mn
0.998943 0.169357 0.112357 Mn
0.999853 0.168055 0.442723 Mn
0.003824 0.171199 0.772060 Mn
0.998879 0.669433 0.112351 Mn
0.000034 0.667954 0.442631 Mn
0.003901 0.671598 0.771586 Mn
0.492141 0.167648 0.120340 Mn
0.501869 0.169015 0.452576 Mn
0.508304 0.171056 0.777828 Mn
0.492041 0.667368 0.120566 Mn
0.501711 0.668924 0.452600 Mn
0.507963 0.670990 0.777818 Mn
0.108324 0.385625 0.068216 O
0.102280 0.378281 0.403212 O
0.109473 0.379940 0.742744 O
0.108397 0.885713 0.068160 O
0.102340 0.878185 0.403361 O
0.110045 0.880132 0.742565 O
0.610124 0.388180 0.076508 O
0.618412 0.391268 0.401558 O
0.615641 0.383684 0.749568 O
0.609813 0.887993 0.076847 O
0.618109 0.891193 0.401580 O
0.615512 0.883110 0.749890 O
0.379691 0.473920 0.125464 O
0.380510 0.482164 0.462716 O
0.383344 0.479075 0.793831 O
0.379655 0.974365 0.125335 O
0.380393 0.982493 0.462623 O
0.383622 0.978922 0.794024 O
0.867927 0.474777 0.122452 O
0.876319 0.474975 0.453671 O
0.874826 0.476915 0.784149 O
0.868004 0.974783 0.122650 O
0.876302 0.974920 0.453786 O
0.875044 0.976523 0.784429 O
0.122229 0.172009 0.323083 O
0.115709 0.184053 0.650493 O
0.125761 0.205028 0.980891 O
0.122380 0.671918 0.323118 O
0.115348 0.684106 0.650048 O
0.125603 0.705155 0.980755 O
0.630277 0.188334 0.324697 O
0.629053 0.187539 0.655694 O
0.631545 0.197514 0.977847 O
0.630238 0.688399 0.324719 O
0.628432 0.687832 0.655488 O
0.631183 0.697524 0.978085 O
0.386624 0.286614 0.038182 O
0.396388 0.285573 0.373040 O
0.394860 0.283459 0.711015 O
0.386460 0.786337 0.038603 O
0.396113 0.785365 0.373100 O
0.394772 0.783665 0.710905 O
0.878699 0.274885 0.034431 O
0.884728 0.274155 0.366512 O
0.885023 0.275847 0.706527 O
0.878528 0.774738 0.034591 O
0.884937 0.774199 0.366387 O
0.885387 0.776550 0.705881 O
0.110868 0.069317 0.187406 O
0.110993 0.060287 0.518430 O
0.112144 0.056071 0.854734 O
0.110744 0.569342 0.187453 O
0.110440 0.559143 0.518634 O
0.111999 0.556222 0.854387 O
0.602155 0.056131 0.196587 O
0.610009 0.056261 0.527039 O
0.611310 0.050416 0.862740 O
0.602223 0.556117 0.196623 O
0.609995 0.556599 0.527004 O
0.611329 0.550750 0.862435 O
0.381664 0.117436 0.268868 O
0.402115 0.109951 0.589100 O
0.390505 0.114360 0.920179 O
0.381720 0.617198 0.268948 O
0.401407 0.609188 0.589023 O
0.390276 0.614093 0.920174 O
0.882639 0.102403 0.249743 O
0.895498 0.104366 0.582023 O
0.887012 0.114822 0.912580 O
0.882571 0.602499 0.249690 O
0.895205 0.603931 0.581825 O
0.887250 0.615205 0.912244 O
