Li9 Sc1 Ti3 V1 Cr1 Fe1 Co1 Ni1 O18      
   1.00000000000000     
     0.0079900000000000    6.2602190000000002    6.2710749999999997
     6.4779470000000003   -0.0052450000000000    6.2845620000000002
     4.3150490000000001    4.1785329999999998   -0.0000040000000000
   Li   Sc   Ti   V    Cr   Fe   Co   Ni   O 
     9     1     3     1     1     1     1     1    18
Direct
  0.9880750000000020  0.3419280000000029  0.0102869999999982
  0.0006259999999969  0.6620789999999985  0.0048969999999997
  0.0033230000000017  0.6610360000000028  0.4940209999999965
  0.3362750000000005  0.9866079999999968  0.9921599999999984
  0.3304979999999986  0.9859409999999968  0.5266609999999972
  0.3434129999999982  0.6749640000000028  0.9720500000000030
  0.3417239999999993  0.6651239999999987  0.5098320000000029
  0.6656249999999986  0.3503419999999977  0.4936209999999974
  0.6600589999999968  0.6532139999999984  0.5126640000000009
  0.6604499999999973  0.9875839999999982  0.5161749999999969
  0.0270300000000034  0.9952880000000022  0.4786860000000033
  0.3105830000000012  0.3540279999999996  0.5216440000000020
  0.6600109999999972  0.9864320000000006  0.0205970000000022
  0.6674629999999979  0.3395730000000015  0.9861280000000008
  0.9927020000000013  0.3426850000000030  0.4907070000000004
  0.6683149999999998  0.6508609999999990  0.0179400000000030
  0.3331340000000012  0.3368749999999991  0.9942739999999972
  0.0094309999999993  0.0037189999999967  0.9890439999999998
  0.1496470000000016  0.1744839999999996  0.2662559999999985
  0.1749429999999990  0.1801209999999998  0.7189260000000033
  0.1692180000000008  0.4846780000000024  0.2694469999999995
  0.1741820000000018  0.4959580000000017  0.7296309999999977
  0.1509929999999997  0.8534000000000006  0.2655460000000005
  0.1530980000000000  0.8510769999999965  0.7364359999999976
  0.5168129999999991  0.1592600000000033  0.2308329999999970
  0.4975379999999987  0.1614470000000026  0.7538029999999978
  0.4943120000000008  0.4763260000000002  0.2631590000000017
  0.5001699999999971  0.4882339999999985  0.7687799999999996
  0.5149320000000017  0.8427409999999966  0.2322660000000027
  0.5071030000000007  0.8274400000000028  0.7608620000000030
  0.8376530000000031  0.1579800000000020  0.2435320000000019
  0.8379600000000025  0.1682679999999976  0.7410780000000017
  0.8393159999999966  0.4985209999999967  0.2513610000000028
  0.8321139999999971  0.4866659999999996  0.7516579999999990
  0.8231219999999979  0.8546600000000026  0.2300850000000025
  0.8281459999999967  0.8604600000000033  0.7549500000000009
 
  0.00000000E+00  0.00000000E+00  0.00000000E+00
  0.00000000E+00  0.00000000E+00  0.00000000E+00
  0.00000000E+00  0.00000000E+00  0.00000000E+00
  0.00000000E+00  0.00000000E+00  0.00000000E+00
  0.00000000E+00  0.00000000E+00  0.00000000E+00
  0.00000000E+00  0.00000000E+00  0.00000000E+00
  0.00000000E+00  0.00000000E+00  0.00000000E+00
  0.00000000E+00  0.00000000E+00  0.00000000E+00
  0.00000000E+00  0.00000000E+00  0.00000000E+00
  0.00000000E+00  0.00000000E+00  0.00000000E+00
  0.00000000E+00  0.00000000E+00  0.00000000E+00
  0.00000000E+00  0.00000000E+00  0.00000000E+00
  0.00000000E+00  0.00000000E+00  0.00000000E+00
  0.00000000E+00  0.00000000E+00  0.00000000E+00
  0.00000000E+00  0.00000000E+00  0.00000000E+00
  0.00000000E+00  0.00000000E+00  0.00000000E+00
  0.00000000E+00  0.00000000E+00  0.00000000E+00
  0.00000000E+00  0.00000000E+00  0.00000000E+00
  0.00000000E+00  0.00000000E+00  0.00000000E+00
  0.00000000E+00  0.00000000E+00  0.00000000E+00
  0.00000000E+00  0.00000000E+00  0.00000000E+00
  0.00000000E+00  0.00000000E+00  0.00000000E+00
  0.00000000E+00  0.00000000E+00  0.00000000E+00
  0.00000000E+00  0.00000000E+00  0.00000000E+00
  0.00000000E+00  0.00000000E+00  0.00000000E+00
  0.00000000E+00  0.00000000E+00  0.00000000E+00
  0.00000000E+00  0.00000000E+00  0.00000000E+00
  0.00000000E+00  0.00000000E+00  0.00000000E+00
  0.00000000E+00  0.00000000E+00  0.00000000E+00
  0.00000000E+00  0.00000000E+00  0.00000000E+00
  0.00000000E+00  0.00000000E+00  0.00000000E+00
  0.00000000E+00  0.00000000E+00  0.00000000E+00
  0.00000000E+00  0.00000000E+00  0.00000000E+00
  0.00000000E+00  0.00000000E+00  0.00000000E+00
  0.00000000E+00  0.00000000E+00  0.00000000E+00
  0.00000000E+00  0.00000000E+00  0.00000000E+00
