Li4 Ti4 O8                              
   1.00000000000000     
     2.1286450000000001    4.3211630000000003    2.1779099999999998
     4.3242190000000003   -2.1795209999999998   -2.2061299999999999
     0.0032770000000000    4.3294769999999998   -4.3744969999999999
   Li   Ti   O 
     4     4     8
Direct
  0.0333430000000021  0.0448540000000008  0.0209150000000022
  0.5131090000000000  0.2411469999999980  0.1475020000000029
  0.5316309999999973  0.8040060000000011  0.3761590000000012
  0.0114549999999980  0.0002179999999967  0.5027180000000016
  0.0447770000000034  0.5224189999999993  0.2619010000000017
  0.5160880000000034  0.2594980000000007  0.6567610000000030
  0.0448140000000024  0.5225429999999989  0.7843560000000025
  0.5286199999999965  0.7855199999999982  0.9118789999999990
  0.2566059999999979  0.3919929999999994  0.4620450000000034
  0.7847420000000014  0.6609759999999980  0.5800809999999998
  0.2599000000000018  0.3841019999999986  0.9885990000000007
  0.7880380000000002  0.6531179999999992  0.0617429999999999
  0.2657039999999995  0.8963099999999997  0.1824859999999973
  0.7790529999999976  0.1487679999999969  0.3412340000000000
  0.2620310000000003  0.9097140000000010  0.7190489999999983
  0.7826969999999989  0.1353640000000027  0.8496290000000002
 
  0.00000000E+00  0.00000000E+00  0.00000000E+00
  0.00000000E+00  0.00000000E+00  0.00000000E+00
  0.00000000E+00  0.00000000E+00  0.00000000E+00
  0.00000000E+00  0.00000000E+00  0.00000000E+00
  0.00000000E+00  0.00000000E+00  0.00000000E+00
  0.00000000E+00  0.00000000E+00  0.00000000E+00
  0.00000000E+00  0.00000000E+00  0.00000000E+00
  0.00000000E+00  0.00000000E+00  0.00000000E+00
  0.00000000E+00  0.00000000E+00  0.00000000E+00
  0.00000000E+00  0.00000000E+00  0.00000000E+00
  0.00000000E+00  0.00000000E+00  0.00000000E+00
  0.00000000E+00  0.00000000E+00  0.00000000E+00
  0.00000000E+00  0.00000000E+00  0.00000000E+00
  0.00000000E+00  0.00000000E+00  0.00000000E+00
  0.00000000E+00  0.00000000E+00  0.00000000E+00
  0.00000000E+00  0.00000000E+00  0.00000000E+00
