Li9 Mn4 Co2 Cu2 Ni1 O18                 
   1.00000000000000     
    -0.0412330000000000    6.2869289999999998    6.1824820000000003
     6.1917190000000000   -0.0447450000000000    6.1850670000000001
     4.1093299999999999    4.1744009999999996   -0.0110040000000000
   Li   Mn   Co   Cu   Ni   O 
     9     4     2     2     1    18
Direct
  0.9792929999999984  0.3606240000000014  0.4878849999999986
  0.9822849999999974  0.6676000000000002  0.0120859999999965
  0.3438459999999992  0.9868609999999975  0.5048340000000024
  0.3464389999999966  0.6650929999999988  0.9904330000000030
  0.3516380000000012  0.6565840000000023  0.4934579999999968
  0.6760799999999989  0.9809070000000020  0.5093200000000024
  0.6627900000000011  0.3621359999999996  0.4799959999999999
  0.6693020000000018  0.6619180000000000  0.0084370000000007
  0.6716150000000027  0.6525340000000028  0.4978290000000030
  0.0050060000000016  0.9967189999999988  0.0011750000000035
  0.0018689999999992  0.0004530000000003  0.5041859999999971
  0.3460740000000015  0.9941099999999992  0.9849189999999979
  0.3246430000000018  0.3438069999999982  0.9997159999999994
  0.3326160000000016  0.3342450000000028  0.4969030000000032
  0.6547800000000024  0.3441740000000024  0.9985270000000028
  0.9897350000000031  0.6615839999999977  0.5112529999999964
  0.6717500000000030  0.9815699999999978  0.0108180000000004
  0.9871180000000024  0.3452419999999989  0.0067409999999981
  0.8334210000000013  0.5000009999999975  0.2506660000000025
  0.8597699999999975  0.8350179999999980  0.2412149999999968
  0.1752230000000026  0.1656309999999976  0.2284859999999966
  0.1715220000000031  0.1600779999999986  0.7715000000000032
  0.1829320000000010  0.4799650000000000  0.2635620000000003
  0.1803349999999995  0.4852059999999980  0.7428829999999991
  0.1776499999999999  0.8505389999999977  0.2062799999999996
  0.1458349999999982  0.8627790000000033  0.7422389999999979
  0.4822440000000014  0.1945020000000000  0.2292830000000023
  0.4718510000000009  0.1812919999999991  0.7613410000000016
  0.4998289999999983  0.4710740000000015  0.2593120000000013
  0.4829089999999994  0.4909570000000016  0.7642030000000020
  0.4932360000000031  0.8529780000000002  0.2176990000000032
  0.4912890000000019  0.8518040000000013  0.7558849999999993
  0.8578820000000036  0.1446600000000018  0.2518770000000004
  0.8253550000000018  0.1541399999999982  0.8079660000000004
  0.8187149999999974  0.4860800000000012  0.7800170000000008
  0.8531219999999990  0.8371369999999985  0.7270710000000022
 
  0.00000000E+00  0.00000000E+00  0.00000000E+00
  0.00000000E+00  0.00000000E+00  0.00000000E+00
  0.00000000E+00  0.00000000E+00  0.00000000E+00
  0.00000000E+00  0.00000000E+00  0.00000000E+00
  0.00000000E+00  0.00000000E+00  0.00000000E+00
  0.00000000E+00  0.00000000E+00  0.00000000E+00
  0.00000000E+00  0.00000000E+00  0.00000000E+00
  0.00000000E+00  0.00000000E+00  0.00000000E+00
  0.00000000E+00  0.00000000E+00  0.00000000E+00
  0.00000000E+00  0.00000000E+00  0.00000000E+00
  0.00000000E+00  0.00000000E+00  0.00000000E+00
  0.00000000E+00  0.00000000E+00  0.00000000E+00
  0.00000000E+00  0.00000000E+00  0.00000000E+00
  0.00000000E+00  0.00000000E+00  0.00000000E+00
  0.00000000E+00  0.00000000E+00  0.00000000E+00
  0.00000000E+00  0.00000000E+00  0.00000000E+00
  0.00000000E+00  0.00000000E+00  0.00000000E+00
  0.00000000E+00  0.00000000E+00  0.00000000E+00
  0.00000000E+00  0.00000000E+00  0.00000000E+00
  0.00000000E+00  0.00000000E+00  0.00000000E+00
  0.00000000E+00  0.00000000E+00  0.00000000E+00
  0.00000000E+00  0.00000000E+00  0.00000000E+00
  0.00000000E+00  0.00000000E+00  0.00000000E+00
  0.00000000E+00  0.00000000E+00  0.00000000E+00
  0.00000000E+00  0.00000000E+00  0.00000000E+00
  0.00000000E+00  0.00000000E+00  0.00000000E+00
  0.00000000E+00  0.00000000E+00  0.00000000E+00
  0.00000000E+00  0.00000000E+00  0.00000000E+00
  0.00000000E+00  0.00000000E+00  0.00000000E+00
  0.00000000E+00  0.00000000E+00  0.00000000E+00
  0.00000000E+00  0.00000000E+00  0.00000000E+00
  0.00000000E+00  0.00000000E+00  0.00000000E+00
  0.00000000E+00  0.00000000E+00  0.00000000E+00
  0.00000000E+00  0.00000000E+00  0.00000000E+00
  0.00000000E+00  0.00000000E+00  0.00000000E+00
  0.00000000E+00  0.00000000E+00  0.00000000E+00
