Li9 Sc2 Ti1 Cr5 Fe1 O18                 
   1.00000000000000     
    -0.0433310000000000    6.3597999999999999    6.2381270000000004
     6.4227010000000000   -0.0224480000000000    6.2171740000000000
     4.2737939999999996    4.2179289999999998   -0.0069020000000000
   Li   Sc   Ti   Cr   Fe   O 
     9     2     1     5     1    18
Direct
  0.9960820000000012  0.0206039999999987  0.9847710000000021
  0.9842000000000013  0.3255880000000033  0.0319399999999987
  0.9748310000000018  0.3411910000000020  0.4999040000000008
  0.9883900000000025  0.6634579999999985  0.0262630000000001
  0.3240550000000013  0.0019089999999977  0.0163749999999965
  0.3251270000000019  0.9998390000000015  0.4933720000000008
  0.6968460000000007  0.3311810000000008  0.9593050000000005
  0.6929390000000026  0.3269060000000010  0.5004940000000033
  0.6832100000000025  0.6480699999999970  0.4940690000000032
  0.6675189999999986  0.0038789999999977  0.4863909999999976
  0.6808010000000024  0.6434700000000007  0.0194819999999964
  0.3181930000000008  0.3241450000000015  0.5196929999999966
  0.0038970000000020  0.0095370000000017  0.4964609999999965
  0.9947379999999981  0.6623519999999985  0.4943919999999977
  0.3255759999999981  0.3298890000000014  0.0093040000000002
  0.3373149999999967  0.6724430000000012  0.4951080000000019
  0.6665509999999983  0.9987870000000001  0.0039850000000001
  0.3374570000000006  0.6858920000000026  0.9716099999999983
  0.1693789999999993  0.1635739999999970  0.2502560000000003
  0.1779429999999991  0.1780490000000015  0.7317770000000010
  0.1895939999999996  0.4894200000000026  0.2438870000000009
  0.1889809999999983  0.4907940000000011  0.7303500000000014
  0.1670009999999991  0.8236320000000035  0.2660010000000028
  0.1753980000000013  0.8254609999999971  0.7365530000000007
  0.4957110000000000  0.1771540000000016  0.2440730000000002
  0.4919500000000028  0.1766750000000030  0.7484609999999989
  0.4788879999999978  0.5153019999999984  0.2548710000000014
  0.4727150000000009  0.5101179999999985  0.7656550000000024
  0.5057819999999964  0.8294640000000015  0.2424010000000010
  0.4980339999999970  0.8317660000000018  0.7603610000000032
  0.8420139999999989  0.1518609999999967  0.2700299999999984
  0.8347499999999997  0.1481870000000001  0.7529949999999985
  0.8332470000000001  0.5012400000000028  0.2490779999999972
  0.8338249999999974  0.5044910000000016  0.7492149999999995
  0.8210300000000004  0.8459390000000013  0.2468259999999987
  0.8260310000000004  0.8477299999999985  0.7542929999999970
 
  0.00000000E+00  0.00000000E+00  0.00000000E+00
  0.00000000E+00  0.00000000E+00  0.00000000E+00
  0.00000000E+00  0.00000000E+00  0.00000000E+00
  0.00000000E+00  0.00000000E+00  0.00000000E+00
  0.00000000E+00  0.00000000E+00  0.00000000E+00
  0.00000000E+00  0.00000000E+00  0.00000000E+00
  0.00000000E+00  0.00000000E+00  0.00000000E+00
  0.00000000E+00  0.00000000E+00  0.00000000E+00
  0.00000000E+00  0.00000000E+00  0.00000000E+00
  0.00000000E+00  0.00000000E+00  0.00000000E+00
  0.00000000E+00  0.00000000E+00  0.00000000E+00
  0.00000000E+00  0.00000000E+00  0.00000000E+00
  0.00000000E+00  0.00000000E+00  0.00000000E+00
  0.00000000E+00  0.00000000E+00  0.00000000E+00
  0.00000000E+00  0.00000000E+00  0.00000000E+00
  0.00000000E+00  0.00000000E+00  0.00000000E+00
  0.00000000E+00  0.00000000E+00  0.00000000E+00
  0.00000000E+00  0.00000000E+00  0.00000000E+00
  0.00000000E+00  0.00000000E+00  0.00000000E+00
  0.00000000E+00  0.00000000E+00  0.00000000E+00
  0.00000000E+00  0.00000000E+00  0.00000000E+00
  0.00000000E+00  0.00000000E+00  0.00000000E+00
  0.00000000E+00  0.00000000E+00  0.00000000E+00
  0.00000000E+00  0.00000000E+00  0.00000000E+00
  0.00000000E+00  0.00000000E+00  0.00000000E+00
  0.00000000E+00  0.00000000E+00  0.00000000E+00
  0.00000000E+00  0.00000000E+00  0.00000000E+00
  0.00000000E+00  0.00000000E+00  0.00000000E+00
  0.00000000E+00  0.00000000E+00  0.00000000E+00
  0.00000000E+00  0.00000000E+00  0.00000000E+00
  0.00000000E+00  0.00000000E+00  0.00000000E+00
  0.00000000E+00  0.00000000E+00  0.00000000E+00
  0.00000000E+00  0.00000000E+00  0.00000000E+00
  0.00000000E+00  0.00000000E+00  0.00000000E+00
  0.00000000E+00  0.00000000E+00  0.00000000E+00
  0.00000000E+00  0.00000000E+00  0.00000000E+00
