Li9 Sc3 Mn2 V2 Cr1 Co1 O18
1.0
0.015128 6.325931 6.479051
6.313356 -0.019360 6.513784
4.189700 4.221117 0.006199
Li Sc Mn V Cr Co O
9 3 2 2 1 1 18
direct
0.003919 0.014532 0.485055 Li
0.013007 0.326516 0.487368 Li
0.330429 0.020618 0.989569 Li
0.330969 0.010703 0.486454 Li
0.325925 0.320999 0.015687 Li
0.330048 0.321177 0.505429 Li
0.656914 0.003924 0.509592 Li
0.670339 0.332389 0.997917 Li
0.662715 0.669723 0.003223 Li
0.999372 0.015757 0.983808 Sc
0.988033 0.670766 0.516175 Sc
0.665345 0.324914 0.499959 Sc
0.008158 0.328163 0.002376 Mn
0.997649 0.658763 0.010412 Mn
0.347066 0.663665 0.994406 V
0.646575 0.003725 0.014389 V
0.335854 0.675720 0.490564 Cr
0.671576 0.659638 0.506651 Co
0.155034 0.182735 0.228742 O
0.154265 0.174572 0.760964 O
0.187328 0.524610 0.224687 O
0.177092 0.519136 0.720463 O
0.174331 0.824969 0.245320 O
0.181529 0.827815 0.749625 O
0.512366 0.140142 0.235052 O
0.512527 0.154672 0.757209 O
0.491624 0.508862 0.254031 O
0.491607 0.508822 0.743598 O
0.510808 0.822710 0.262433 O
0.486650 0.806292 0.782467 O
0.828802 0.168536 0.245296 O
0.817750 0.151545 0.769568 O
0.838421 0.483672 0.255718 O
0.845839 0.498898 0.746219 O
0.830381 0.840870 0.249109 O
0.819752 0.839452 0.770461 O
