Li9 Sc4 Co2 Ni3 O18                     
   1.00000000000000     
     6.0378121226932882    0.0142663251996813   -0.0166388673062219
     1.6790001834938524    7.7213237871091627   -0.0441158788949977
     1.4229748355495149    2.5376206743953507    7.3177716281721414
   Li   Sc   Co   Ni   O 
     9     4     2     3    18
Direct
  0.8481722590123194  0.9636080334050960  0.6875228397525665
  0.1590727315170955  0.9853988377651101  0.3567456459227655
  0.3532253156935136  0.6647084111646757  0.9723799361957712
  0.6656341625946200  0.6677960624052478  0.6882978718696934
  0.1590755755678885  0.6933987780055748  0.6680499777794731
  0.9854536270584179  0.6520576172340868  0.3571730739561324
  0.1715333065118666  0.3529929612778257  0.9896098758450408
  0.0034198803373602  0.3332059799390734  0.6500548392406463
  0.3024655138885239 -0.0000589324690683  0.6520453879853367
  0.5027701718364067  0.0091420196513843  0.9867693336710650
  0.4811743974832848  0.6641787700010509  0.3411799404779938
  0.0163708698731315  0.0026373907973761  0.9908449882793796
  0.6736282708133066 -0.0119366173170484  0.3607122661914073
  0.8584038652016954  0.6641608294471040  0.9938647913547982
  0.3204074583481253  0.3362644478350293  0.3268192823111302
  0.6633149314086055  0.3435634511855713  0.9950377800882406
  0.4964531374135947  0.3332100153449912  0.6661682192540921
  0.8326076501576080  0.3316249823449090  0.3289612695536130
  0.9184032886279329  0.8403254675405032  0.5037677311753783
  0.6187085609293635  0.8131236223131971  0.8619897898127209
  0.0903598985373439  0.8280716662310557  0.8450510159876108
  0.4280411026981445  0.8291107994564837  0.4981360020523578
  0.2633048975431235  0.8564302601230387  0.1622242792630055
  0.7530681700532950  0.8337420025545343  0.1666479980271314
  0.8930460366144815  0.5013534230794244  0.8655420172485997
  0.4417515876634915  0.4864343261147237  0.8330429609218435
  0.2529928795786796  0.4850725446459311  0.4788106840977691
  0.7460032453313973  0.4791895542974403  0.4873111702306447
  0.5497783952427111  0.4856615465027613  0.1824467015101743
  0.0579066062602636  0.4942078898973205  0.1763924678261790
  0.2529589830215981  0.1609048832567285  0.8284795942328603
  0.7533212602660692  0.1647373108761672  0.8337555749380482
  0.5591247549943416  0.1915129089278645  0.4797476882833411
  0.1118639078326258  0.1909679137623328  0.4601036178894207
  0.8873610465059416  0.1807010546333045  0.1650340266318999
  0.4288192535818311  0.1924977877692112  0.1592823601418675
 
  0.00000000E+00  0.00000000E+00  0.00000000E+00
  0.00000000E+00  0.00000000E+00  0.00000000E+00
  0.00000000E+00  0.00000000E+00  0.00000000E+00
  0.00000000E+00  0.00000000E+00  0.00000000E+00
  0.00000000E+00  0.00000000E+00  0.00000000E+00
  0.00000000E+00  0.00000000E+00  0.00000000E+00
  0.00000000E+00  0.00000000E+00  0.00000000E+00
  0.00000000E+00  0.00000000E+00  0.00000000E+00
  0.00000000E+00  0.00000000E+00  0.00000000E+00
  0.00000000E+00  0.00000000E+00  0.00000000E+00
  0.00000000E+00  0.00000000E+00  0.00000000E+00
  0.00000000E+00  0.00000000E+00  0.00000000E+00
  0.00000000E+00  0.00000000E+00  0.00000000E+00
  0.00000000E+00  0.00000000E+00  0.00000000E+00
  0.00000000E+00  0.00000000E+00  0.00000000E+00
  0.00000000E+00  0.00000000E+00  0.00000000E+00
  0.00000000E+00  0.00000000E+00  0.00000000E+00
  0.00000000E+00  0.00000000E+00  0.00000000E+00
  0.00000000E+00  0.00000000E+00  0.00000000E+00
  0.00000000E+00  0.00000000E+00  0.00000000E+00
  0.00000000E+00  0.00000000E+00  0.00000000E+00
  0.00000000E+00  0.00000000E+00  0.00000000E+00
  0.00000000E+00  0.00000000E+00  0.00000000E+00
  0.00000000E+00  0.00000000E+00  0.00000000E+00
  0.00000000E+00  0.00000000E+00  0.00000000E+00
  0.00000000E+00  0.00000000E+00  0.00000000E+00
  0.00000000E+00  0.00000000E+00  0.00000000E+00
  0.00000000E+00  0.00000000E+00  0.00000000E+00
  0.00000000E+00  0.00000000E+00  0.00000000E+00
  0.00000000E+00  0.00000000E+00  0.00000000E+00
  0.00000000E+00  0.00000000E+00  0.00000000E+00
  0.00000000E+00  0.00000000E+00  0.00000000E+00
  0.00000000E+00  0.00000000E+00  0.00000000E+00
  0.00000000E+00  0.00000000E+00  0.00000000E+00
  0.00000000E+00  0.00000000E+00  0.00000000E+00
  0.00000000E+00  0.00000000E+00  0.00000000E+00
