Li9 Sc1 Ti1 V4 Co3 O18                  
   1.00000000000000     
    -0.0158060000000000    6.4093229999999997    6.2738969999999998
     6.4306799999999997   -0.0440800000000000    6.3010270000000004
     4.2516660000000002    4.2566639999999998    0.0061750000000000
   Li   Sc   Ti   V    Co   O 
     9     1     1     4     3    18
Direct
  0.0317870000000013  0.9614199999999968  0.0019399999999976
  0.0353970000000032  0.9628609999999966  0.5063469999999981
  0.0222940000000023  0.6815489999999969  0.9736350000000016
  0.0109410000000025  0.6946780000000032  0.4660379999999975
  0.3116219999999998  0.9828270000000003  0.5361309999999975
  0.3315100000000015  0.3395620000000008  0.9973519999999994
  0.3371179999999967  0.3278490000000005  0.4998160000000027
  0.2980459999999994  0.6944969999999984  0.9950210000000013
  0.2979500000000002  0.6932919999999996  0.5155090000000015
  0.6778180000000020  0.9996129999999965  0.0023139999999984
  0.6512669999999972  0.6831900000000033  0.9841410000000010
  0.0159850000000006  0.3394120000000029  0.9848080000000010
  0.0196040000000011  0.3351380000000006  0.4832940000000008
  0.6608560000000026  0.3348119999999994  0.0052450000000022
  0.6609210000000019  0.3347380000000015  0.5007730000000024
  0.3158719999999988  0.9975269999999981  0.0125460000000004
  0.6657599999999988  0.6677019999999985  0.4985519999999966
  0.6688910000000021  0.9998220000000018  0.4992310000000018
  0.1663080000000008  0.8317529999999991  0.7510779999999997
  0.1475659999999976  0.1865120000000005  0.2490820000000014
  0.1453729999999993  0.1856879999999990  0.7520480000000020
  0.1473420000000019  0.4840560000000025  0.2769199999999969
  0.1511980000000008  0.4842110000000019  0.7728520000000003
  0.1714139999999986  0.8375690000000020  0.2441529999999972
  0.5149889999999999  0.1615759999999966  0.2497779999999992
  0.5085449999999980  0.1545399999999972  0.7464590000000015
  0.5216640000000012  0.4944029999999984  0.2414160000000010
  0.5220789999999980  0.4821710000000010  0.7467929999999967
  0.5179979999999986  0.8195130000000006  0.2254369999999994
  0.5053539999999970  0.8134420000000020  0.7711169999999967
  0.8295260000000013  0.1997479999999996  0.2291379999999990
  0.8277080000000012  0.1890379999999965  0.7352670000000003
  0.8393569999999997  0.4887510000000006  0.2507639999999967
  0.8363239999999976  0.4909099999999995  0.7624849999999981
  0.8170730000000006  0.8389299999999977  0.2692029999999974
  0.8165440000000004  0.8266989999999979  0.7633160000000032
 
  0.00000000E+00  0.00000000E+00  0.00000000E+00
  0.00000000E+00  0.00000000E+00  0.00000000E+00
  0.00000000E+00  0.00000000E+00  0.00000000E+00
  0.00000000E+00  0.00000000E+00  0.00000000E+00
  0.00000000E+00  0.00000000E+00  0.00000000E+00
  0.00000000E+00  0.00000000E+00  0.00000000E+00
  0.00000000E+00  0.00000000E+00  0.00000000E+00
  0.00000000E+00  0.00000000E+00  0.00000000E+00
  0.00000000E+00  0.00000000E+00  0.00000000E+00
  0.00000000E+00  0.00000000E+00  0.00000000E+00
  0.00000000E+00  0.00000000E+00  0.00000000E+00
  0.00000000E+00  0.00000000E+00  0.00000000E+00
  0.00000000E+00  0.00000000E+00  0.00000000E+00
  0.00000000E+00  0.00000000E+00  0.00000000E+00
  0.00000000E+00  0.00000000E+00  0.00000000E+00
  0.00000000E+00  0.00000000E+00  0.00000000E+00
  0.00000000E+00  0.00000000E+00  0.00000000E+00
  0.00000000E+00  0.00000000E+00  0.00000000E+00
  0.00000000E+00  0.00000000E+00  0.00000000E+00
  0.00000000E+00  0.00000000E+00  0.00000000E+00
  0.00000000E+00  0.00000000E+00  0.00000000E+00
  0.00000000E+00  0.00000000E+00  0.00000000E+00
  0.00000000E+00  0.00000000E+00  0.00000000E+00
  0.00000000E+00  0.00000000E+00  0.00000000E+00
  0.00000000E+00  0.00000000E+00  0.00000000E+00
  0.00000000E+00  0.00000000E+00  0.00000000E+00
  0.00000000E+00  0.00000000E+00  0.00000000E+00
  0.00000000E+00  0.00000000E+00  0.00000000E+00
  0.00000000E+00  0.00000000E+00  0.00000000E+00
  0.00000000E+00  0.00000000E+00  0.00000000E+00
  0.00000000E+00  0.00000000E+00  0.00000000E+00
  0.00000000E+00  0.00000000E+00  0.00000000E+00
  0.00000000E+00  0.00000000E+00  0.00000000E+00
  0.00000000E+00  0.00000000E+00  0.00000000E+00
  0.00000000E+00  0.00000000E+00  0.00000000E+00
  0.00000000E+00  0.00000000E+00  0.00000000E+00
