Li9 Ti2 V1 Cr2 Co2 Ni2 O18              
   1.00000000000000     
    -0.0174360000000000    6.2528519999999999    6.3154659999999998
     6.2512059999999998    0.0142870000000000    6.2836420000000004
     4.1653710000000004    4.1452720000000003    0.0117350000000000
   Li   Ti   V    Cr   Co   Ni   O 
     9     2     1     2     2     2    18
Direct
  0.9785540000000026  0.9927080000000004  0.0301690000000008
  0.9801829999999967  0.9981020000000029  0.5042260000000027
  0.9867330000000010  0.3343789999999984  0.0075149999999979
  0.9889960000000002  0.6841069999999974  0.5017459999999971
  0.3405950000000004  0.3379750000000001  0.9917009999999991
  0.6933480000000003  0.9900260000000003  0.9804579999999987
  0.6911759999999987  0.9875630000000015  0.4952660000000009
  0.6683870000000027  0.3265230000000017  0.4985259999999982
  0.6911210000000025  0.6676089999999988  0.9746659999999991
  0.9794040000000024  0.3386309999999995  0.5077759999999998
  0.3279399999999981  0.9922570000000022  0.0215409999999991
  0.3348680000000002  0.3379710000000031  0.5057479999999970
  0.0005969999999991  0.6748619999999974  0.9839490000000026
  0.3306320000000014  0.0035409999999985  0.5018859999999989
  0.6692249999999973  0.3238989999999973  0.0101200000000006
  0.6739749999999987  0.6713409999999982  0.4955020000000019
  0.3323919999999987  0.6632919999999984  0.0032560000000004
  0.3379779999999997  0.6610540000000000  0.5062670000000011
  0.1704989999999995  0.1569760000000002  0.2599080000000029
  0.1739239999999995  0.1701470000000000  0.7357239999999976
  0.1656880000000029  0.4860680000000031  0.2707490000000021
  0.1763049999999993  0.5026650000000004  0.7358389999999986
  0.1793070000000014  0.8431819999999988  0.2302680000000024
  0.1795060000000035  0.8247110000000006  0.7481360000000024
  0.4774969999999996  0.1780970000000011  0.2733800000000031
  0.4668050000000008  0.1764470000000031  0.7502509999999987
  0.4882429999999971  0.4901660000000021  0.2630440000000007
  0.5131810000000030  0.5008010000000027  0.7588170000000005
  0.4862749999999991  0.8471639999999994  0.2504100000000022
  0.4822320000000033  0.8501189999999994  0.7609169999999992
  0.8139350000000007  0.1792739999999995  0.2338230000000010
  0.8401420000000002  0.1810100000000006  0.7319590000000034
  0.8568709999999982  0.4954230000000024  0.2385540000000006
  0.8413619999999966  0.4865920000000017  0.7405639999999991
  0.8388229999999979  0.8199380000000005  0.2403359999999992
  0.8433059999999983  0.8253770000000031  0.7570049999999995
 
  0.00000000E+00  0.00000000E+00  0.00000000E+00
  0.00000000E+00  0.00000000E+00  0.00000000E+00
  0.00000000E+00  0.00000000E+00  0.00000000E+00
  0.00000000E+00  0.00000000E+00  0.00000000E+00
  0.00000000E+00  0.00000000E+00  0.00000000E+00
  0.00000000E+00  0.00000000E+00  0.00000000E+00
  0.00000000E+00  0.00000000E+00  0.00000000E+00
  0.00000000E+00  0.00000000E+00  0.00000000E+00
  0.00000000E+00  0.00000000E+00  0.00000000E+00
  0.00000000E+00  0.00000000E+00  0.00000000E+00
  0.00000000E+00  0.00000000E+00  0.00000000E+00
  0.00000000E+00  0.00000000E+00  0.00000000E+00
  0.00000000E+00  0.00000000E+00  0.00000000E+00
  0.00000000E+00  0.00000000E+00  0.00000000E+00
  0.00000000E+00  0.00000000E+00  0.00000000E+00
  0.00000000E+00  0.00000000E+00  0.00000000E+00
  0.00000000E+00  0.00000000E+00  0.00000000E+00
  0.00000000E+00  0.00000000E+00  0.00000000E+00
  0.00000000E+00  0.00000000E+00  0.00000000E+00
  0.00000000E+00  0.00000000E+00  0.00000000E+00
  0.00000000E+00  0.00000000E+00  0.00000000E+00
  0.00000000E+00  0.00000000E+00  0.00000000E+00
  0.00000000E+00  0.00000000E+00  0.00000000E+00
  0.00000000E+00  0.00000000E+00  0.00000000E+00
  0.00000000E+00  0.00000000E+00  0.00000000E+00
  0.00000000E+00  0.00000000E+00  0.00000000E+00
  0.00000000E+00  0.00000000E+00  0.00000000E+00
  0.00000000E+00  0.00000000E+00  0.00000000E+00
  0.00000000E+00  0.00000000E+00  0.00000000E+00
  0.00000000E+00  0.00000000E+00  0.00000000E+00
  0.00000000E+00  0.00000000E+00  0.00000000E+00
  0.00000000E+00  0.00000000E+00  0.00000000E+00
  0.00000000E+00  0.00000000E+00  0.00000000E+00
  0.00000000E+00  0.00000000E+00  0.00000000E+00
  0.00000000E+00  0.00000000E+00  0.00000000E+00
  0.00000000E+00  0.00000000E+00  0.00000000E+00
