Li9 Sc1 Ti1 Cr3 Co1 Cu1 Ni2 O18         
   1.00000000000000     
     0.0414590000000000    6.2254180000000003    6.3639910000000004
     6.2513420000000002    0.0425300000000000    6.3628429999999998
     4.1829900000000002    4.1649310000000002    0.0128270000000000
   Li   Sc   Ti   Cr   Co   Cu   Ni   O 
     9     1     1     3     1     1     2    18
Direct
  0.0020769999999999  0.3344560000000030  0.4917560000000023
  0.9923530000000014  0.6660189999999986  0.0053109999999990
  0.3377899999999983  0.9970229999999987  0.4935529999999986
  0.3348399999999998  0.3381060000000033  0.9922019999999989
  0.3514780000000002  0.6617299999999986  0.4951849999999993
  0.6615949999999984  0.9843619999999973  0.5174179999999993
  0.6575149999999965  0.3508179999999967  0.5042949999999990
  0.6643710000000027  0.6719009999999983  0.0046889999999991
  0.6680470000000014  0.6636239999999987  0.4878950000000017
  0.3450750000000014  0.6691959999999995  0.9739539999999991
  0.3487190000000027  0.3180130000000005  0.4993270000000010
  0.9938190000000020  0.3407270000000011  0.0089479999999966
  0.9918309999999977  0.6685530000000028  0.5058399999999992
  0.6620830000000026  0.9966349999999977  0.0064050000000009
  0.9946210000000022  0.9972199999999987  0.0020620000000022
  0.9982090000000028  0.0018760000000029  0.5021610000000010
  0.3384860000000032  0.9965350000000015  0.0008290000000031
  0.6665199999999984  0.3385450000000034  0.9918550000000010
  0.1527340000000024  0.1617820000000023  0.2364510000000024
  0.1718320000000020  0.1768920000000023  0.7567669999999964
  0.1712530000000001  0.4967299999999994  0.2772730000000010
  0.1592029999999980  0.4930919999999972  0.7435690000000008
  0.1480180000000004  0.8357889999999983  0.2456109999999967
  0.1519860000000008  0.8525520000000029  0.7618110000000016
  0.4951890000000034  0.1712410000000020  0.2540430000000029
  0.4974199999999982  0.1687340000000006  0.7499940000000009
  0.4895730000000000  0.4852559999999997  0.2681860000000000
  0.5050010000000000  0.5021649999999980  0.7477889999999974
  0.5040029999999973  0.8480950000000007  0.2295239999999978
  0.4931640000000002  0.8353230000000025  0.7697170000000000
  0.8515680000000003  0.1686369999999968  0.2088159999999988
  0.8280439999999984  0.1532880000000034  0.7853890000000021
  0.8496189999999970  0.4802979999999977  0.2349820000000022
  0.8517229999999998  0.4920850000000030  0.7574410000000000
  0.8299769999999995  0.8355689999999996  0.2510230000000035
  0.8402639999999977  0.8471309999999974  0.7379299999999986
 
  0.00000000E+00  0.00000000E+00  0.00000000E+00
  0.00000000E+00  0.00000000E+00  0.00000000E+00
  0.00000000E+00  0.00000000E+00  0.00000000E+00
  0.00000000E+00  0.00000000E+00  0.00000000E+00
  0.00000000E+00  0.00000000E+00  0.00000000E+00
  0.00000000E+00  0.00000000E+00  0.00000000E+00
  0.00000000E+00  0.00000000E+00  0.00000000E+00
  0.00000000E+00  0.00000000E+00  0.00000000E+00
  0.00000000E+00  0.00000000E+00  0.00000000E+00
  0.00000000E+00  0.00000000E+00  0.00000000E+00
  0.00000000E+00  0.00000000E+00  0.00000000E+00
  0.00000000E+00  0.00000000E+00  0.00000000E+00
  0.00000000E+00  0.00000000E+00  0.00000000E+00
  0.00000000E+00  0.00000000E+00  0.00000000E+00
  0.00000000E+00  0.00000000E+00  0.00000000E+00
  0.00000000E+00  0.00000000E+00  0.00000000E+00
  0.00000000E+00  0.00000000E+00  0.00000000E+00
  0.00000000E+00  0.00000000E+00  0.00000000E+00
  0.00000000E+00  0.00000000E+00  0.00000000E+00
  0.00000000E+00  0.00000000E+00  0.00000000E+00
  0.00000000E+00  0.00000000E+00  0.00000000E+00
  0.00000000E+00  0.00000000E+00  0.00000000E+00
  0.00000000E+00  0.00000000E+00  0.00000000E+00
  0.00000000E+00  0.00000000E+00  0.00000000E+00
  0.00000000E+00  0.00000000E+00  0.00000000E+00
  0.00000000E+00  0.00000000E+00  0.00000000E+00
  0.00000000E+00  0.00000000E+00  0.00000000E+00
  0.00000000E+00  0.00000000E+00  0.00000000E+00
  0.00000000E+00  0.00000000E+00  0.00000000E+00
  0.00000000E+00  0.00000000E+00  0.00000000E+00
  0.00000000E+00  0.00000000E+00  0.00000000E+00
  0.00000000E+00  0.00000000E+00  0.00000000E+00
  0.00000000E+00  0.00000000E+00  0.00000000E+00
  0.00000000E+00  0.00000000E+00  0.00000000E+00
  0.00000000E+00  0.00000000E+00  0.00000000E+00
  0.00000000E+00  0.00000000E+00  0.00000000E+00
