Li9 Sc1 Mn1 Co4 Cu1 Ni2 O18             
   1.00000000000000     
     0.0145740000000000    6.1847500000000002    6.3339730000000003
     6.0007580000000003    0.0325330000000000    6.3161800000000001
     4.0207740000000003    4.1311920000000004    0.0016470000000000
   Li   Sc   Mn   Co   Cu   Ni   O 
     9     1     1     4     1     2    18
Direct
  0.9987610000000018  0.9964399999999998  0.5073409999999967
  0.9921599999999984  0.3393540000000002  0.0023520000000019
  0.0035200000000017  0.6622600000000034  0.9939279999999968
  0.3321340000000035  0.3392849999999967  0.9979209999999981
  0.3411710000000028  0.6648509999999987  0.9870129999999975
  0.6606799999999993  0.9945999999999984  0.5074579999999997
  0.6607640000000004  0.3414659999999969  0.0054990000000004
  0.6714920000000006  0.6627810000000025  0.9946169999999981
  0.6666060000000016  0.6661519999999967  0.5055849999999964
  0.9988639999999975  0.9993219999999994  0.0162869999999984
  0.6676369999999991  0.9947980000000030  0.9951840000000018
  0.9976419999999990  0.3432659999999998  0.4868680000000012
  0.9978509999999972  0.6648250000000004  0.5117120000000028
  0.3350590000000011  0.6646209999999968  0.5004440000000017
  0.6683579999999978  0.3335280000000012  0.4970590000000001
  0.3316360000000032  0.0039170000000013  0.9991020000000006
  0.3357249999999965  0.9974720000000019  0.5018209999999996
  0.3373390000000001  0.3327120000000008  0.4961630000000028
  0.4784009999999981  0.8504829999999970  0.7469910000000013
  0.1719289999999987  0.1622169999999983  0.2755960000000002
  0.1686270000000007  0.1702680000000001  0.7584209999999985
  0.1553540000000027  0.5023320000000027  0.2742119999999986
  0.1813039999999972  0.5160699999999991  0.7242210000000000
  0.1579249999999988  0.8112560000000002  0.2848979999999983
  0.1861650000000026  0.8367379999999969  0.7270529999999980
  0.4957319999999967  0.1493139999999968  0.2534210000000030
  0.5223650000000006  0.1780720000000002  0.7290589999999995
  0.5036320000000032  0.4912879999999973  0.2784830000000014
  0.5039719999999974  0.5014279999999971  0.7113450000000014
  0.4933449999999979  0.8410530000000023  0.2292770000000033
  0.8269510000000011  0.1766080000000017  0.2567329999999970
  0.8164190000000033  0.1675139999999971  0.7585619999999977
  0.8266350000000031  0.4724829999999969  0.2847530000000020
  0.8545000000000016  0.5027460000000019  0.7144589999999980
  0.8299760000000020  0.8411529999999985  0.2275929999999988
  0.8293699999999973  0.8273250000000019  0.7585710000000034
 
  0.00000000E+00  0.00000000E+00  0.00000000E+00
  0.00000000E+00  0.00000000E+00  0.00000000E+00
  0.00000000E+00  0.00000000E+00  0.00000000E+00
  0.00000000E+00  0.00000000E+00  0.00000000E+00
  0.00000000E+00  0.00000000E+00  0.00000000E+00
  0.00000000E+00  0.00000000E+00  0.00000000E+00
  0.00000000E+00  0.00000000E+00  0.00000000E+00
  0.00000000E+00  0.00000000E+00  0.00000000E+00
  0.00000000E+00  0.00000000E+00  0.00000000E+00
  0.00000000E+00  0.00000000E+00  0.00000000E+00
  0.00000000E+00  0.00000000E+00  0.00000000E+00
  0.00000000E+00  0.00000000E+00  0.00000000E+00
  0.00000000E+00  0.00000000E+00  0.00000000E+00
  0.00000000E+00  0.00000000E+00  0.00000000E+00
  0.00000000E+00  0.00000000E+00  0.00000000E+00
  0.00000000E+00  0.00000000E+00  0.00000000E+00
  0.00000000E+00  0.00000000E+00  0.00000000E+00
  0.00000000E+00  0.00000000E+00  0.00000000E+00
  0.00000000E+00  0.00000000E+00  0.00000000E+00
  0.00000000E+00  0.00000000E+00  0.00000000E+00
  0.00000000E+00  0.00000000E+00  0.00000000E+00
  0.00000000E+00  0.00000000E+00  0.00000000E+00
  0.00000000E+00  0.00000000E+00  0.00000000E+00
  0.00000000E+00  0.00000000E+00  0.00000000E+00
  0.00000000E+00  0.00000000E+00  0.00000000E+00
  0.00000000E+00  0.00000000E+00  0.00000000E+00
  0.00000000E+00  0.00000000E+00  0.00000000E+00
  0.00000000E+00  0.00000000E+00  0.00000000E+00
  0.00000000E+00  0.00000000E+00  0.00000000E+00
  0.00000000E+00  0.00000000E+00  0.00000000E+00
  0.00000000E+00  0.00000000E+00  0.00000000E+00
  0.00000000E+00  0.00000000E+00  0.00000000E+00
  0.00000000E+00  0.00000000E+00  0.00000000E+00
  0.00000000E+00  0.00000000E+00  0.00000000E+00
  0.00000000E+00  0.00000000E+00  0.00000000E+00
  0.00000000E+00  0.00000000E+00  0.00000000E+00
