Li9 Ti4 Mn1 V2 Cr1 Fe1 O18
1.0
0.035627 6.278452 6.339583
6.393054 0.016233 6.359024
4.276049 4.212967 -0.003108
Li Ti Mn V Cr Fe O
9 4 1 2 1 1 18
direct
0.012039 0.993365 0.487211 Li
0.993724 0.345155 0.007850 Li
0.990096 0.659490 0.007041 Li
0.997603 0.671341 0.506447 Li
0.330869 0.989506 0.009803 Li
0.331220 0.680482 0.994644 Li
0.673984 0.984309 0.508770 Li
0.675627 0.670362 0.978533 Li
0.677680 0.664060 0.494991 Li
0.341903 0.991421 0.517902 Ti
0.331543 0.329562 0.510651 Ti
0.678043 0.973169 0.002401 Ti
0.659098 0.348097 0.993924 Ti
0.680717 0.337960 0.472026 Mn
0.008180 0.990616 0.013198 V
0.330432 0.331199 0.000131 V
0.995792 0.337356 0.499489 Cr
0.324536 0.676018 0.495359 Fe
0.164776 0.170223 0.279155 O
0.167109 0.170398 0.743360 O
0.170771 0.475573 0.280422 O
0.181698 0.498883 0.725597 O
0.157564 0.840370 0.248491 O
0.170893 0.849871 0.744948 O
0.501293 0.165936 0.250078 O
0.500614 0.168269 0.744973 O
0.492668 0.493182 0.242823 O
0.503944 0.492183 0.757765 O
0.495553 0.849990 0.247349 O
0.491268 0.846836 0.731834 O
0.825109 0.170232 0.219534 O
0.829970 0.165255 0.770888 O
0.847020 0.492403 0.256869 O
0.821703 0.485533 0.760597 O
0.826460 0.846979 0.225651 O
0.818500 0.844414 0.769295 O
