Li4 Ti2 Ni2 O8
1.0
2.106880 4.253800 2.079256
4.216396 -2.124405 -2.087034
-0.006062 4.292579 -4.229624
Li Ti Ni O
4 2 2 8
direct
0.004133 0.004644 0.013717 Li
0.507732 0.253430 0.127035 Li
0.010923 0.502073 0.254748 Li
0.507498 0.253484 0.634378 Li
0.004812 0.007622 0.479893 Ti
0.010299 0.499294 0.788614 Ti
0.512120 0.748794 0.376074 Ni
0.502902 0.773127 0.892467 Ni
0.234652 0.369802 0.460625 O
0.774597 0.654416 0.577725 O
0.239288 0.399279 0.941618 O
0.756284 0.626304 0.051358 O
0.258811 0.895647 0.202201 O
0.775763 0.107699 0.326873 O
0.240431 0.867538 0.690789 O
0.780412 0.137107 0.807904 O
