Li9 Sc1 Ti2 V4 Cu2 O18                  
   1.00000000000000     
     0.0070440000000000    6.1346639999999999    6.3250549999999999
     6.4860449999999998   -0.0215270000000000    6.3535820000000003
     4.3264709999999997    4.1119100000000000   -0.0167880000000000
   Li   Sc   Ti   V    Cu   O 
     9     1     2     4     2    18
Direct
  0.9863489999999970  0.0009950000000032  0.5062569999999980
  0.9945949999999968  0.3505170000000035  0.4860820000000032
  0.9949360000000027  0.6655250000000024  0.0410529999999980
  0.9978229999999968  0.6725380000000030  0.4668789999999987
  0.3317860000000010  0.3366589999999974  0.0092890000000025
  0.3229630000000014  0.6599059999999994  0.0100150000000028
  0.6806359999999998  0.9980249999999984  0.4811350000000019
  0.6701589999999982  0.3227910000000023  0.5116050000000030
  0.6818189999999973  0.6677269999999993  0.4824089999999970
  0.3328089999999975  0.6508109999999974  0.5195030000000003
  0.3289770000000019  0.0027339999999967  0.5036180000000030
  0.6883100000000013  0.6705269999999999  0.9700940000000031
  0.9960060000000013  0.3382190000000023  0.0115639999999999
  0.3367530000000016  0.9956400000000016  0.0021360000000001
  0.3260560000000012  0.3411959999999965  0.4895610000000019
  0.6611880000000028  0.3334680000000034  0.9977420000000023
  0.9909010000000009  0.9866120000000009  0.0255030000000005
  0.6781620000000004  0.0030929999999998  0.9796320000000023
  0.1812279999999973  0.1521479999999968  0.2471400000000017
  0.1715459999999993  0.1632299999999987  0.7391429999999986
  0.1677620000000033  0.4942040000000034  0.2648659999999978
  0.1742109999999997  0.4824479999999980  0.7460730000000027
  0.1730900000000020  0.8437979999999996  0.2350780000000015
  0.1936729999999969  0.8421390000000031  0.7109909999999999
  0.4842749999999967  0.1706160000000025  0.2801720000000003
  0.4900009999999995  0.1525889999999990  0.7693680000000001
  0.5021369999999976  0.5022719999999978  0.2423840000000013
  0.5042820000000034  0.4917599999999993  0.7552659999999989
  0.4995809999999992  0.8310189999999977  0.2622690000000034
  0.4912059999999983  0.8427900000000008  0.7610760000000028
  0.8336139999999972  0.1927620000000019  0.2344530000000020
  0.8222219999999965  0.1701130000000006  0.7860689999999977
  0.8375419999999991  0.5034789999999987  0.2205620000000010
  0.8160700000000034  0.5085240000000013  0.7711010000000016
  0.8303259999999995  0.8430770000000010  0.2282399999999996
  0.8270049999999998  0.8160499999999971  0.7516719999999992
 
  0.00000000E+00  0.00000000E+00  0.00000000E+00
  0.00000000E+00  0.00000000E+00  0.00000000E+00
  0.00000000E+00  0.00000000E+00  0.00000000E+00
  0.00000000E+00  0.00000000E+00  0.00000000E+00
  0.00000000E+00  0.00000000E+00  0.00000000E+00
  0.00000000E+00  0.00000000E+00  0.00000000E+00
  0.00000000E+00  0.00000000E+00  0.00000000E+00
  0.00000000E+00  0.00000000E+00  0.00000000E+00
  0.00000000E+00  0.00000000E+00  0.00000000E+00
  0.00000000E+00  0.00000000E+00  0.00000000E+00
  0.00000000E+00  0.00000000E+00  0.00000000E+00
  0.00000000E+00  0.00000000E+00  0.00000000E+00
  0.00000000E+00  0.00000000E+00  0.00000000E+00
  0.00000000E+00  0.00000000E+00  0.00000000E+00
  0.00000000E+00  0.00000000E+00  0.00000000E+00
  0.00000000E+00  0.00000000E+00  0.00000000E+00
  0.00000000E+00  0.00000000E+00  0.00000000E+00
  0.00000000E+00  0.00000000E+00  0.00000000E+00
  0.00000000E+00  0.00000000E+00  0.00000000E+00
  0.00000000E+00  0.00000000E+00  0.00000000E+00
  0.00000000E+00  0.00000000E+00  0.00000000E+00
  0.00000000E+00  0.00000000E+00  0.00000000E+00
  0.00000000E+00  0.00000000E+00  0.00000000E+00
  0.00000000E+00  0.00000000E+00  0.00000000E+00
  0.00000000E+00  0.00000000E+00  0.00000000E+00
  0.00000000E+00  0.00000000E+00  0.00000000E+00
  0.00000000E+00  0.00000000E+00  0.00000000E+00
  0.00000000E+00  0.00000000E+00  0.00000000E+00
  0.00000000E+00  0.00000000E+00  0.00000000E+00
  0.00000000E+00  0.00000000E+00  0.00000000E+00
  0.00000000E+00  0.00000000E+00  0.00000000E+00
  0.00000000E+00  0.00000000E+00  0.00000000E+00
  0.00000000E+00  0.00000000E+00  0.00000000E+00
  0.00000000E+00  0.00000000E+00  0.00000000E+00
  0.00000000E+00  0.00000000E+00  0.00000000E+00
  0.00000000E+00  0.00000000E+00  0.00000000E+00
