Li9 Ti3 V5 Co1 O18
1.0
-0.001767 6.289336 6.268535
6.328748 -0.007932 6.274862
4.220850 4.198748 -0.007176
Li Ti V Co O
9 3 5 1 18
direct
0.007866 0.997526 0.997225 Li
0.008803 0.992696 0.496149 Li
0.009424 0.332983 0.495776 Li
0.998813 0.665779 0.500157 Li
0.335866 0.998974 0.998890 Li
0.328825 0.327569 0.011857 Li
0.334540 0.327097 0.498103 Li
0.668268 0.671225 0.989406 Li
0.661944 0.674624 0.504075 Li
0.025640 0.316895 0.988668 Ti
0.987260 0.665462 0.018770 Ti
0.673405 0.333630 0.989485 Ti
0.656613 0.997971 0.005703 V
0.672153 0.990290 0.502782 V
0.329332 0.676972 -0.000170 V
0.333661 0.666696 0.492873 V
0.667971 0.341640 0.499714 V
0.323248 0.011558 0.499380 Co
0.154758 0.174153 0.241805 O
0.161174 0.176141 0.755686 O
0.160623 0.520686 0.220042 O
0.153190 0.499793 0.766631 O
0.179632 0.817188 0.253958 O
0.165797 0.818497 0.749168 O
0.508207 0.174390 0.237511 O
0.515360 0.160321 0.748904 O
0.499746 0.500324 0.247406 O
0.499440 0.504132 0.758301 O
0.490464 0.842548 0.260965 O
0.488437 0.834965 0.749307 O
0.831720 0.179846 0.236102 O
0.818231 0.170826 0.774000 O
0.847598 0.499250 0.230901 O
0.831667 0.479471 0.780462 O
0.835164 0.829809 0.233213 O
0.835161 0.828075 0.766793 O
