Li9 Sc1 Mn1 V2 Fe1 Co1 Ni3 O18          
   1.00000000000000     
    -0.0034280000000000    6.1114670000000002    6.3884600000000002
     6.4781740000000001    0.0066180000000000    6.3775700000000004
     4.3300559999999999    4.0787000000000004   -0.0065500000000000
   Li   Sc   Mn   V    Fe   Co   Ni   O 
     9     1     1     2     1     1     3    18
Direct
  0.3619970000000023  0.0026190000000028  0.9602629999999976
  0.3586650000000020  0.3115740000000002  0.9780650000000009
  0.3408950000000033  0.6732179999999985  0.9826130000000006
  0.6697559999999996  0.0185249999999968  0.9709110000000010
  0.6385739999999984  0.0126869999999997  0.5337910000000008
  0.6558520000000030  0.3059340000000006  0.0203479999999985
  0.6566710000000029  0.3080089999999984  0.5265950000000004
  0.6659110000000013  0.6798659999999970  0.9762869999999992
  0.6576499999999967  0.6893230000000017  0.5048189999999977
  0.9835629999999966  0.3357079999999968  0.5114299999999972
  0.3465879999999970  0.9977919999999969  0.4964129999999969
  0.9949719999999971  0.3297120000000007  0.0132430000000028
  0.3680359999999965  0.6583439999999996  0.4725710000000021
  0.9958209999999994  0.6786529999999971  0.4954370000000026
  0.0030760000000001  0.6679829999999995  0.9985410000000030
  0.9990930000000020  0.9977310000000017  0.0074770000000015
  0.9928760000000025  0.0006509999999977  0.5099870000000024
  0.3461140000000000  0.3195860000000010  0.5031559999999971
  0.1546590000000023  0.1770250000000004  0.2534270000000021
  0.1545490000000029  0.1758900000000025  0.7738409999999973
  0.1435689999999994  0.5172749999999979  0.2627519999999990
  0.1539169999999999  0.5079149999999970  0.7669039999999967
  0.1620869999999996  0.8218480000000028  0.2911840000000012
  0.1811330000000027  0.8391319999999993  0.7265859999999975
  0.4801059999999993  0.1632469999999984  0.2737880000000033
  0.4990530000000035  0.1666820000000016  0.7502059999999986
  0.4720060000000004  0.5157910000000001  0.2816830000000010
  0.4791949999999972  0.5163179999999983  0.7307389999999998
  0.4870769999999993  0.8125100000000032  0.2647350000000017
  0.4962739999999997  0.8403780000000012  0.7294819999999973
  0.8501570000000029  0.1736429999999984  0.2248170000000016
  0.8394059999999968  0.1641540000000035  0.7482970000000009
  0.8486880000000028  0.4898260000000008  0.2227219999999974
  0.8516120000000029  0.4930620000000019  0.7582439999999977
  0.8559729999999988  0.8199579999999997  0.2246669999999966
  0.8544259999999966  0.8174300000000017  0.7539780000000036
 
  0.00000000E+00  0.00000000E+00  0.00000000E+00
  0.00000000E+00  0.00000000E+00  0.00000000E+00
  0.00000000E+00  0.00000000E+00  0.00000000E+00
  0.00000000E+00  0.00000000E+00  0.00000000E+00
  0.00000000E+00  0.00000000E+00  0.00000000E+00
  0.00000000E+00  0.00000000E+00  0.00000000E+00
  0.00000000E+00  0.00000000E+00  0.00000000E+00
  0.00000000E+00  0.00000000E+00  0.00000000E+00
  0.00000000E+00  0.00000000E+00  0.00000000E+00
  0.00000000E+00  0.00000000E+00  0.00000000E+00
  0.00000000E+00  0.00000000E+00  0.00000000E+00
  0.00000000E+00  0.00000000E+00  0.00000000E+00
  0.00000000E+00  0.00000000E+00  0.00000000E+00
  0.00000000E+00  0.00000000E+00  0.00000000E+00
  0.00000000E+00  0.00000000E+00  0.00000000E+00
  0.00000000E+00  0.00000000E+00  0.00000000E+00
  0.00000000E+00  0.00000000E+00  0.00000000E+00
  0.00000000E+00  0.00000000E+00  0.00000000E+00
  0.00000000E+00  0.00000000E+00  0.00000000E+00
  0.00000000E+00  0.00000000E+00  0.00000000E+00
  0.00000000E+00  0.00000000E+00  0.00000000E+00
  0.00000000E+00  0.00000000E+00  0.00000000E+00
  0.00000000E+00  0.00000000E+00  0.00000000E+00
  0.00000000E+00  0.00000000E+00  0.00000000E+00
  0.00000000E+00  0.00000000E+00  0.00000000E+00
  0.00000000E+00  0.00000000E+00  0.00000000E+00
  0.00000000E+00  0.00000000E+00  0.00000000E+00
  0.00000000E+00  0.00000000E+00  0.00000000E+00
  0.00000000E+00  0.00000000E+00  0.00000000E+00
  0.00000000E+00  0.00000000E+00  0.00000000E+00
  0.00000000E+00  0.00000000E+00  0.00000000E+00
  0.00000000E+00  0.00000000E+00  0.00000000E+00
  0.00000000E+00  0.00000000E+00  0.00000000E+00
  0.00000000E+00  0.00000000E+00  0.00000000E+00
  0.00000000E+00  0.00000000E+00  0.00000000E+00
  0.00000000E+00  0.00000000E+00  0.00000000E+00
