Li9 Ti3 V3 Cr1 Co1 Cu1 O18              
   1.00000000000000     
    -0.0296140000000000    6.3772690000000001    6.2191950000000000
     6.2606590000000004    0.0210040000000000    6.1691310000000001
     4.1887359999999996    4.2328570000000001   -0.0008290000000000
   Li   Ti   V    Cr   Co   Cu   O 
     9     3     3     1     1     1    18
Direct
  0.0048230000000018  0.0003400000000013  0.9915129999999976
  0.3506360000000015  0.9933400000000034  0.0015330000000020
  0.3487039999999979  0.9932909999999993  0.4857689999999977
  0.3414769999999976  0.3274759999999972  0.9953410000000034
  0.3463229999999982  0.3200369999999992  0.5001329999999982
  0.3554710000000014  0.6802210000000031  0.4747070000000022
  0.6497620000000026  0.3412209999999973  0.0058730000000011
  0.6463460000000012  0.6778699999999986  0.0195700000000016
  0.6455389999999994  0.6814949999999982  0.4887850000000000
  0.0202129999999983  0.9775289999999970  0.4900919999999971
  0.0016269999999992  0.3283470000000008  0.9835629999999966
  0.9965910000000022  0.6706620000000001  0.0043650000000000
  0.9979399999999998  0.3353940000000009  0.5038580000000010
  0.3567090000000022  0.6576730000000026  0.9901369999999972
  0.6603709999999978  0.9941900000000032  0.5040880000000030
  0.6562350000000023  0.0052310000000020  0.0070729999999983
  0.6544110000000032  0.3470579999999970  0.4991619999999983
  0.0145160000000004  0.6571690000000032  0.4938679999999991
  0.1440290000000033  0.1732379999999978  0.2613520000000022
  0.1553919999999991  0.1838059999999970  0.7560220000000015
  0.1635860000000022  0.5019009999999966  0.2334770000000006
  0.1424799999999991  0.4968069999999969  0.7997480000000010
  0.1691640000000021  0.8404710000000009  0.2456249999999969
  0.1634859999999989  0.8286640000000034  0.7608999999999995
  0.5178790000000006  0.1537250000000014  0.2560089999999988
  0.5131680000000003  0.1631050000000016  0.7424099999999996
  0.4767160000000032  0.5178989999999999  0.2426620000000028
  0.4812879999999993  0.5180020000000027  0.7668770000000009
  0.5041859999999971  0.8481209999999990  0.2350750000000019
  0.5002470000000017  0.8270940000000024  0.7561040000000006
  0.8455170000000010  0.1517070000000018  0.2653540000000021
  0.8456619999999972  0.1595330000000033  0.7255809999999983
  0.8382930000000002  0.4953629999999976  0.2461150000000032
  0.8388199999999983  0.4708430000000021  0.7754990000000035
  0.8267779999999973  0.8370790000000028  0.2317419999999970
  0.8256179999999986  0.8440969999999979  0.7600189999999998
 
  0.00000000E+00  0.00000000E+00  0.00000000E+00
  0.00000000E+00  0.00000000E+00  0.00000000E+00
  0.00000000E+00  0.00000000E+00  0.00000000E+00
  0.00000000E+00  0.00000000E+00  0.00000000E+00
  0.00000000E+00  0.00000000E+00  0.00000000E+00
  0.00000000E+00  0.00000000E+00  0.00000000E+00
  0.00000000E+00  0.00000000E+00  0.00000000E+00
  0.00000000E+00  0.00000000E+00  0.00000000E+00
  0.00000000E+00  0.00000000E+00  0.00000000E+00
  0.00000000E+00  0.00000000E+00  0.00000000E+00
  0.00000000E+00  0.00000000E+00  0.00000000E+00
  0.00000000E+00  0.00000000E+00  0.00000000E+00
  0.00000000E+00  0.00000000E+00  0.00000000E+00
  0.00000000E+00  0.00000000E+00  0.00000000E+00
  0.00000000E+00  0.00000000E+00  0.00000000E+00
  0.00000000E+00  0.00000000E+00  0.00000000E+00
  0.00000000E+00  0.00000000E+00  0.00000000E+00
  0.00000000E+00  0.00000000E+00  0.00000000E+00
  0.00000000E+00  0.00000000E+00  0.00000000E+00
  0.00000000E+00  0.00000000E+00  0.00000000E+00
  0.00000000E+00  0.00000000E+00  0.00000000E+00
  0.00000000E+00  0.00000000E+00  0.00000000E+00
  0.00000000E+00  0.00000000E+00  0.00000000E+00
  0.00000000E+00  0.00000000E+00  0.00000000E+00
  0.00000000E+00  0.00000000E+00  0.00000000E+00
  0.00000000E+00  0.00000000E+00  0.00000000E+00
  0.00000000E+00  0.00000000E+00  0.00000000E+00
  0.00000000E+00  0.00000000E+00  0.00000000E+00
  0.00000000E+00  0.00000000E+00  0.00000000E+00
  0.00000000E+00  0.00000000E+00  0.00000000E+00
  0.00000000E+00  0.00000000E+00  0.00000000E+00
  0.00000000E+00  0.00000000E+00  0.00000000E+00
  0.00000000E+00  0.00000000E+00  0.00000000E+00
  0.00000000E+00  0.00000000E+00  0.00000000E+00
  0.00000000E+00  0.00000000E+00  0.00000000E+00
  0.00000000E+00  0.00000000E+00  0.00000000E+00
