Li9 Ti4 Cu4 Ni1 O18
1.0
-0.057253 6.437771 6.054970
6.440863 -0.062257 6.059844
4.255008 4.256230 -0.002765
Li Ti Cu Ni O
9 4 4 1 18
direct
0.990725 0.346191 0.999610 Li
0.990299 0.668752 0.992235 Li
0.988859 0.664713 0.521154 Li
0.354791 0.982708 0.004370 Li
0.350978 0.989699 0.487853 Li
0.654619 0.985301 0.017069 Li
0.657988 0.348295 0.493614 Li
0.664209 0.673859 0.004072 Li
0.662141 0.677759 0.488618 Li
0.997639 0.987703 0.009933 Ti
0.004017 0.991414 0.501098 Ti
0.986251 0.360076 0.477486 Ti
0.332830 0.322260 0.530943 Ti
0.331165 0.327183 0.006984 Cu
0.354073 0.659666 0.490465 Cu
0.663216 0.988906 0.511657 Cu
0.658522 0.344340 0.996595 Cu
0.341177 0.666843 0.991399 Ni
0.152979 0.176211 0.267063 O
0.158962 0.182067 0.735518 O
0.167778 0.494960 0.269862 O
0.189171 0.495768 0.722697 O
0.152118 0.858821 0.234697 O
0.150830 0.850141 0.756623 O
0.491555 0.190380 0.250341 O
0.493208 0.174286 0.729790 O
0.489026 0.501243 0.249272 O
0.485198 0.494234 0.774676 O
0.494776 0.825954 0.261186 O
0.502666 0.836229 0.744412 O
0.849435 0.138608 0.260072 O
0.862296 0.149196 0.738909 O
0.847415 0.486453 0.262031 O
0.840691 0.476715 0.744543 O
0.838048 0.845160 0.236506 O
0.850349 0.837905 0.736645 O
