Li9 Sc4 Mn2 Cr1 Co1 Ni1 O18
1.0
0.004662 6.220365 6.494005
6.404315 -0.012709 6.511132
4.260573 4.149527 0.000470
Li Sc Mn Cr Co Ni O
9 4 2 1 1 1 18
direct
0.000462 0.991820 0.997994 Li
0.995061 0.347772 0.994610 Li
0.975261 0.367563 0.493995 Li
0.996342 0.650644 0.034472 Li
0.323352 0.331736 0.010237 Li
0.312279 0.677806 0.011153 Li
0.672614 0.001706 0.484012 Li
0.689959 0.335513 0.967460 Li
0.695235 0.644398 0.488299 Li
0.984372 0.011193 0.501365 Sc
0.336664 0.335077 0.478299 Sc
0.331695 0.652046 0.534458 Sc
0.683945 0.657829 0.978982 Sc
0.329083 0.998041 0.004821 Mn
0.669088 0.001055 0.013763 Mn
0.333480 0.994173 0.509529 Cr
0.679459 0.343751 0.488005 Co
0.997665 0.667080 0.481948 Ni
0.182212 0.140200 0.247164 O
0.192221 0.148731 0.750331 O
0.172246 0.501684 0.248707 O
0.175539 0.501809 0.721016 O
0.169153 0.847611 0.243929 O
0.177213 0.842713 0.731092 O
0.491875 0.143603 0.268728 O
0.489225 0.138173 0.795984 O
0.507338 0.495403 0.265568 O
0.520631 0.477750 0.729690 O
0.481822 0.838717 0.253929 O
0.476264 0.844251 0.780543 O
0.809095 0.187847 0.279745 O
0.826512 0.176979 0.734858 O
0.829752 0.502051 0.244521 O
0.838012 0.514434 0.735649 O
0.826730 0.848652 0.235936 O
0.828145 0.840191 0.759209 O
