Li9 Ti2 V1 Cr2 Co1 Ni3 O18              
   1.00000000000000     
    -0.0160200000000000    6.2457349999999998    6.2447410000000003
     6.2224069999999996   -0.0096820000000000    6.2384630000000003
     4.1573539999999998    4.1686769999999997   -0.0154750000000000
   Li   Ti   V    Cr   Co   Ni   O 
     9     2     1     2     1     3    18
Direct
  0.0025839999999988  0.0052609999999973  0.4984589999999969
  0.9921780000000027  0.3323120000000017  0.0149249999999981
  0.3603719999999981  0.3333280000000016  0.9834880000000013
  0.3600220000000007  0.6490989999999996  0.9868409999999983
  0.6520149999999987  0.0092870000000005  0.5042630000000017
  0.6453130000000016  0.3571579999999983  0.9891670000000019
  0.6513980000000004  0.3546070000000014  0.5014899999999969
  0.6541100000000029  0.6489049999999992  0.0171130000000019
  0.6484779999999972  0.6492059999999995  0.5330719999999971
  0.0063030000000026  0.6547750000000008  0.0033409999999989
  0.9879120000000015  0.6657739999999990  0.5166820000000030
  0.9895670000000010  0.0154610000000019  0.0105440000000030
  0.3295880000000011  0.9994960000000006  0.0030369999999991
  0.6631709999999984  0.0084050000000033  0.9920979999999986
  0.3392570000000035  0.9972729999999999  0.4978049999999996
  0.9955980000000011  0.3287479999999974  0.4984740000000016
  0.3556730000000030  0.3302970000000016  0.4802600000000012
  0.3549599999999984  0.6544609999999977  0.4957160000000016
  0.1789630000000031  0.1495389999999972  0.2708060000000003
  0.1658199999999965  0.1630859999999998  0.7535409999999985
  0.1497529999999969  0.5120670000000018  0.2610889999999984
  0.1556020000000018  0.5200299999999984  0.7360210000000009
  0.1574000000000026  0.8375860000000017  0.2486060000000023
  0.1488420000000019  0.8343640000000008  0.7796620000000019
  0.5035310000000024  0.1557829999999996  0.2478619999999978
  0.4967150000000018  0.1518939999999986  0.7673539999999974
  0.4982820000000032  0.4962799999999987  0.2567670000000035
  0.4976410000000016  0.5017849999999981  0.7459070000000025
  0.4975220000000036  0.8475439999999992  0.2316050000000018
  0.4770460000000014  0.8535570000000021  0.7421969999999973
  0.8523220000000009  0.1496470000000016  0.2271240000000034
  0.8405630000000031  0.1537009999999981  0.7638540000000020
  0.8541340000000019  0.5088870000000014  0.2291529999999966
  0.8471550000000008  0.5142910000000001  0.7218840000000029
  0.8462800000000001  0.8341860000000025  0.2327349999999981
  0.8439309999999978  0.8219190000000012  0.7570559999999986
 
  0.00000000E+00  0.00000000E+00  0.00000000E+00
  0.00000000E+00  0.00000000E+00  0.00000000E+00
  0.00000000E+00  0.00000000E+00  0.00000000E+00
  0.00000000E+00  0.00000000E+00  0.00000000E+00
  0.00000000E+00  0.00000000E+00  0.00000000E+00
  0.00000000E+00  0.00000000E+00  0.00000000E+00
  0.00000000E+00  0.00000000E+00  0.00000000E+00
  0.00000000E+00  0.00000000E+00  0.00000000E+00
  0.00000000E+00  0.00000000E+00  0.00000000E+00
  0.00000000E+00  0.00000000E+00  0.00000000E+00
  0.00000000E+00  0.00000000E+00  0.00000000E+00
  0.00000000E+00  0.00000000E+00  0.00000000E+00
  0.00000000E+00  0.00000000E+00  0.00000000E+00
  0.00000000E+00  0.00000000E+00  0.00000000E+00
  0.00000000E+00  0.00000000E+00  0.00000000E+00
  0.00000000E+00  0.00000000E+00  0.00000000E+00
  0.00000000E+00  0.00000000E+00  0.00000000E+00
  0.00000000E+00  0.00000000E+00  0.00000000E+00
  0.00000000E+00  0.00000000E+00  0.00000000E+00
  0.00000000E+00  0.00000000E+00  0.00000000E+00
  0.00000000E+00  0.00000000E+00  0.00000000E+00
  0.00000000E+00  0.00000000E+00  0.00000000E+00
  0.00000000E+00  0.00000000E+00  0.00000000E+00
  0.00000000E+00  0.00000000E+00  0.00000000E+00
  0.00000000E+00  0.00000000E+00  0.00000000E+00
  0.00000000E+00  0.00000000E+00  0.00000000E+00
  0.00000000E+00  0.00000000E+00  0.00000000E+00
  0.00000000E+00  0.00000000E+00  0.00000000E+00
  0.00000000E+00  0.00000000E+00  0.00000000E+00
  0.00000000E+00  0.00000000E+00  0.00000000E+00
  0.00000000E+00  0.00000000E+00  0.00000000E+00
  0.00000000E+00  0.00000000E+00  0.00000000E+00
  0.00000000E+00  0.00000000E+00  0.00000000E+00
  0.00000000E+00  0.00000000E+00  0.00000000E+00
  0.00000000E+00  0.00000000E+00  0.00000000E+00
  0.00000000E+00  0.00000000E+00  0.00000000E+00
