Li9 Ti1 Mn1 V2 Fe3 Co2 O18              
   1.00000000000000     
     0.0133810000000000    6.3259710000000000    6.2268770000000000
     6.3114920000000003    0.0138340000000000    6.2263830000000002
     4.2083649999999997    4.2179539999999998    0.0085300000000000
   Li   Ti   Mn   V    Fe   Co   O 
     9     1     1     2     3     2    18
Direct
  0.9974380000000025  0.0045029999999997  0.5016589999999965
  0.0079610000000017  0.3347109999999986  0.9974020000000010
  0.0030319999999975  0.6637279999999990  0.9914500000000004
  0.0113929999999982  0.6542260000000013  0.5104690000000005
  0.3351359999999985  0.0030209999999968  0.9987070000000031
  0.3289270000000002  0.3393330000000034  0.5076219999999978
  0.6619990000000016  0.3341220000000007  0.0008120000000034
  0.6651400000000010  0.3344159999999974  0.4960239999999985
  0.6698329999999970  0.6597670000000022  0.4978880000000032
  0.9972830000000030  0.0054009999999991  0.0120020000000025
  0.3328890000000015  0.6674659999999975  0.4985309999999998
  0.9891769999999980  0.3493449999999996  0.4943120000000008
  0.3341440000000020  0.6605199999999982  0.0007700000000028
  0.6628839999999983  0.0013069999999971  0.9969699999999975
  0.6606510000000014  0.9998110000000011  0.5081369999999978
  0.6849909999999966  0.6445539999999994  0.0035299999999978
  0.3292429999999982  0.3368790000000033  0.9944059999999979
  0.3289139999999975  0.0038120000000035  0.4999129999999994
  0.1479440000000025  0.1864840000000001  0.2787840000000017
  0.1450760000000031  0.1720200000000034  0.7532890000000023
  0.1612930000000006  0.5007859999999980  0.2550900000000027
  0.1839459999999988  0.5123109999999969  0.7266249999999985
  0.1694540000000018  0.8348719999999972  0.2258279999999999
  0.1638769999999994  0.8386330000000015  0.7619270000000000
  0.5068109999999990  0.1539369999999991  0.2500220000000013
  0.5106619999999964  0.1539539999999988  0.7538109999999989
  0.5074389999999980  0.5081249999999997  0.2327659999999980
  0.4865629999999967  0.5126100000000022  0.7582840000000033
  0.5013160000000028  0.8248010000000008  0.2481379999999973
  0.5063850000000016  0.8225660000000019  0.7554140000000018
  0.8398419999999973  0.1442470000000000  0.2532920000000018
  0.8429169999999999  0.1618759999999995  0.7584269999999975
  0.8370099999999994  0.4957270000000022  0.2506369999999976
  0.8455650000000006  0.4910619999999994  0.7338510000000014
  0.8272019999999998  0.8551250000000010  0.2321430000000007
  0.8156630000000007  0.8339429999999979  0.7610689999999991
 
  0.00000000E+00  0.00000000E+00  0.00000000E+00
  0.00000000E+00  0.00000000E+00  0.00000000E+00
  0.00000000E+00  0.00000000E+00  0.00000000E+00
  0.00000000E+00  0.00000000E+00  0.00000000E+00
  0.00000000E+00  0.00000000E+00  0.00000000E+00
  0.00000000E+00  0.00000000E+00  0.00000000E+00
  0.00000000E+00  0.00000000E+00  0.00000000E+00
  0.00000000E+00  0.00000000E+00  0.00000000E+00
  0.00000000E+00  0.00000000E+00  0.00000000E+00
  0.00000000E+00  0.00000000E+00  0.00000000E+00
  0.00000000E+00  0.00000000E+00  0.00000000E+00
  0.00000000E+00  0.00000000E+00  0.00000000E+00
  0.00000000E+00  0.00000000E+00  0.00000000E+00
  0.00000000E+00  0.00000000E+00  0.00000000E+00
  0.00000000E+00  0.00000000E+00  0.00000000E+00
  0.00000000E+00  0.00000000E+00  0.00000000E+00
  0.00000000E+00  0.00000000E+00  0.00000000E+00
  0.00000000E+00  0.00000000E+00  0.00000000E+00
  0.00000000E+00  0.00000000E+00  0.00000000E+00
  0.00000000E+00  0.00000000E+00  0.00000000E+00
  0.00000000E+00  0.00000000E+00  0.00000000E+00
  0.00000000E+00  0.00000000E+00  0.00000000E+00
  0.00000000E+00  0.00000000E+00  0.00000000E+00
  0.00000000E+00  0.00000000E+00  0.00000000E+00
  0.00000000E+00  0.00000000E+00  0.00000000E+00
  0.00000000E+00  0.00000000E+00  0.00000000E+00
  0.00000000E+00  0.00000000E+00  0.00000000E+00
  0.00000000E+00  0.00000000E+00  0.00000000E+00
  0.00000000E+00  0.00000000E+00  0.00000000E+00
  0.00000000E+00  0.00000000E+00  0.00000000E+00
  0.00000000E+00  0.00000000E+00  0.00000000E+00
  0.00000000E+00  0.00000000E+00  0.00000000E+00
  0.00000000E+00  0.00000000E+00  0.00000000E+00
  0.00000000E+00  0.00000000E+00  0.00000000E+00
  0.00000000E+00  0.00000000E+00  0.00000000E+00
  0.00000000E+00  0.00000000E+00  0.00000000E+00
