Li9 V1 Fe3 Co1 Ni4 O18                  
   1.00000000000000     
    -0.0038970000000000    6.2659909999999996    6.1180519999999996
     6.2951090000000001   -0.0063610000000000    6.1212910000000003
     4.1994150000000001    4.1816820000000003   -0.0071560000000000
   Li   V    Fe   Co   Ni   O 
     9     1     3     1     4    18
Direct
  0.0044109999999975  0.0000149999999977  0.9923640000000020
  0.0079780000000014  0.9936989999999994  0.5003159999999980
  0.0150039999999976  0.3319800000000015  0.9870429999999999
  0.0168279999999967  0.6598540000000028  0.9817589999999967
  0.0164350000000013  0.6579830000000015  0.5043030000000002
  0.3177289999999999  0.0127230000000012  0.0120799999999974
  0.3211659999999981  0.3364260000000030  0.0020760000000024
  0.3194590000000019  0.3403780000000012  0.5103780000000029
  0.6668590000000023  0.0079780000000014  0.9861039999999974
  0.6765070000000009  0.6754180000000005  0.4829780000000028
  0.6647329999999982  0.0105420000000009  0.5045739999999981
  0.6660480000000035  0.3227669999999989  0.5119630000000015
  0.6736039999999974  0.6668850000000006  0.9924609999999987
  0.3252760000000023  0.0074619999999967  0.5046979999999976
  0.0126800000000031  0.3304600000000022  0.4936670000000021
  0.3176920000000010  0.6650070000000028  0.0169199999999989
  0.3213599999999985  0.6662839999999974  0.5064369999999982
  0.6606200000000015  0.3276820000000029  0.0055720000000008
  0.1773820000000015  0.1575399999999973  0.2778160000000014
  0.1812269999999998  0.1503080000000026  0.7244659999999996
  0.1624989999999968  0.4996510000000001  0.2517160000000018
  0.1740149999999971  0.5102570000000028  0.7383099999999985
  0.1822960000000009  0.8134530000000026  0.2606409999999997
  0.1853249999999989  0.8412530000000018  0.7317139999999966
  0.5012150000000020  0.1414169999999970  0.2739729999999980
  0.5093889999999988  0.1663550000000029  0.7365449999999996
  0.5115369999999970  0.5024629999999988  0.2384500000000003
  0.5049980000000005  0.5117189999999994  0.7304719999999989
  0.4918610000000001  0.8213569999999990  0.2813799999999986
  0.5015900000000002  0.8267290000000003  0.7383039999999994
  0.8242279999999980  0.1722480000000033  0.2538669999999996
  0.8278490000000005  0.1877029999999991  0.7363110000000006
  0.8186449999999965  0.5112540000000010  0.2583350000000024
  0.8166610000000034  0.5099680000000006  0.7441900000000032
  0.8123170000000002  0.8279190000000014  0.2711019999999991
  0.8125760000000000  0.8348599999999990  0.7567149999999998
 
  0.00000000E+00  0.00000000E+00  0.00000000E+00
  0.00000000E+00  0.00000000E+00  0.00000000E+00
  0.00000000E+00  0.00000000E+00  0.00000000E+00
  0.00000000E+00  0.00000000E+00  0.00000000E+00
  0.00000000E+00  0.00000000E+00  0.00000000E+00
  0.00000000E+00  0.00000000E+00  0.00000000E+00
  0.00000000E+00  0.00000000E+00  0.00000000E+00
  0.00000000E+00  0.00000000E+00  0.00000000E+00
  0.00000000E+00  0.00000000E+00  0.00000000E+00
  0.00000000E+00  0.00000000E+00  0.00000000E+00
  0.00000000E+00  0.00000000E+00  0.00000000E+00
  0.00000000E+00  0.00000000E+00  0.00000000E+00
  0.00000000E+00  0.00000000E+00  0.00000000E+00
  0.00000000E+00  0.00000000E+00  0.00000000E+00
  0.00000000E+00  0.00000000E+00  0.00000000E+00
  0.00000000E+00  0.00000000E+00  0.00000000E+00
  0.00000000E+00  0.00000000E+00  0.00000000E+00
  0.00000000E+00  0.00000000E+00  0.00000000E+00
  0.00000000E+00  0.00000000E+00  0.00000000E+00
  0.00000000E+00  0.00000000E+00  0.00000000E+00
  0.00000000E+00  0.00000000E+00  0.00000000E+00
  0.00000000E+00  0.00000000E+00  0.00000000E+00
  0.00000000E+00  0.00000000E+00  0.00000000E+00
  0.00000000E+00  0.00000000E+00  0.00000000E+00
  0.00000000E+00  0.00000000E+00  0.00000000E+00
  0.00000000E+00  0.00000000E+00  0.00000000E+00
  0.00000000E+00  0.00000000E+00  0.00000000E+00
  0.00000000E+00  0.00000000E+00  0.00000000E+00
  0.00000000E+00  0.00000000E+00  0.00000000E+00
  0.00000000E+00  0.00000000E+00  0.00000000E+00
  0.00000000E+00  0.00000000E+00  0.00000000E+00
  0.00000000E+00  0.00000000E+00  0.00000000E+00
  0.00000000E+00  0.00000000E+00  0.00000000E+00
  0.00000000E+00  0.00000000E+00  0.00000000E+00
  0.00000000E+00  0.00000000E+00  0.00000000E+00
  0.00000000E+00  0.00000000E+00  0.00000000E+00
