Li9 Ti1 Mn2 Cr3 Fe1 Co1 Ni1 O18         
   1.00000000000000     
     0.0160360000000000    6.3338359999999998    6.3286959999999999
     6.2430779999999997    0.0272270000000000    6.3177209999999997
     4.1762449999999998    4.2294039999999997    0.0039100000000000
   Li   Ti   Mn   Cr   Fe   Co   Ni   O 
     9     1     2     3     1     1     1    18
Direct
  0.9985649999999993  0.9876620000000003  0.0078990000000019
  0.0050460000000001  0.9889750000000035  0.5076699999999974
  0.9935820000000035  0.3322700000000012  0.4998160000000027
  0.9922090000000026  0.6836050000000000  0.0016790000000029
  0.9914229999999975  0.6855449999999976  0.4831220000000016
  0.3318950000000029  0.9874799999999979  0.0207529999999991
  0.3347470000000001  0.9843660000000014  0.5012639999999990
  0.3298369999999977  0.6847500000000011  0.4910429999999977
  0.6696400000000011  0.6805120000000002  0.4830680000000029
  0.3196590000000015  0.3372659999999996  0.5113989999999973
  0.9974410000000020  0.3311190000000011  0.0091249999999974
  0.3275959999999998  0.3379159999999999  0.0021289999999965
  0.3193259999999967  0.6917449999999974  0.9919930000000008
  0.6722320000000011  0.9892540000000025  0.0099859999999978
  0.6634180000000001  0.6691709999999986  0.0034020000000012
  0.6809300000000036  0.3236860000000021  0.9911949999999976
  0.6684940000000026  0.3348719999999972  0.4975179999999995
  0.6723659999999967  0.9875899999999973  0.5025610000000000
  0.1666039999999995  0.1933939999999978  0.2173760000000016
  0.1711710000000011  0.1900639999999996  0.7396490000000000
  0.1879369999999980  0.4934170000000009  0.2443010000000001
  0.1839620000000011  0.4984170000000034  0.7158239999999978
  0.1807450000000017  0.8209019999999967  0.2313979999999987
  0.1856429999999989  0.8192680000000010  0.7626840000000001
  0.5034360000000007  0.1652869999999993  0.2612549999999985
  0.5026229999999998  0.1816519999999997  0.7396639999999977
  0.4985640000000018  0.5009069999999980  0.2313440000000000
  0.4921280000000010  0.4863410000000030  0.7867660000000001
  0.5136559999999974  0.8333080000000024  0.2312920000000034
  0.5011769999999984  0.8205430000000007  0.7689090000000007
  0.8204640000000012  0.1674050000000022  0.2556489999999982
  0.8216800000000006  0.1642089999999996  0.7638069999999999
  0.8283119999999968  0.4885250000000028  0.2416740000000033
  0.8321260000000024  0.4873880000000028  0.7802269999999965
  0.8241889999999970  0.8384939999999972  0.2443749999999980
  0.8171740000000014  0.8326950000000011  0.7681839999999980
 
  0.00000000E+00  0.00000000E+00  0.00000000E+00
  0.00000000E+00  0.00000000E+00  0.00000000E+00
  0.00000000E+00  0.00000000E+00  0.00000000E+00
  0.00000000E+00  0.00000000E+00  0.00000000E+00
  0.00000000E+00  0.00000000E+00  0.00000000E+00
  0.00000000E+00  0.00000000E+00  0.00000000E+00
  0.00000000E+00  0.00000000E+00  0.00000000E+00
  0.00000000E+00  0.00000000E+00  0.00000000E+00
  0.00000000E+00  0.00000000E+00  0.00000000E+00
  0.00000000E+00  0.00000000E+00  0.00000000E+00
  0.00000000E+00  0.00000000E+00  0.00000000E+00
  0.00000000E+00  0.00000000E+00  0.00000000E+00
  0.00000000E+00  0.00000000E+00  0.00000000E+00
  0.00000000E+00  0.00000000E+00  0.00000000E+00
  0.00000000E+00  0.00000000E+00  0.00000000E+00
  0.00000000E+00  0.00000000E+00  0.00000000E+00
  0.00000000E+00  0.00000000E+00  0.00000000E+00
  0.00000000E+00  0.00000000E+00  0.00000000E+00
  0.00000000E+00  0.00000000E+00  0.00000000E+00
  0.00000000E+00  0.00000000E+00  0.00000000E+00
  0.00000000E+00  0.00000000E+00  0.00000000E+00
  0.00000000E+00  0.00000000E+00  0.00000000E+00
  0.00000000E+00  0.00000000E+00  0.00000000E+00
  0.00000000E+00  0.00000000E+00  0.00000000E+00
  0.00000000E+00  0.00000000E+00  0.00000000E+00
  0.00000000E+00  0.00000000E+00  0.00000000E+00
  0.00000000E+00  0.00000000E+00  0.00000000E+00
  0.00000000E+00  0.00000000E+00  0.00000000E+00
  0.00000000E+00  0.00000000E+00  0.00000000E+00
  0.00000000E+00  0.00000000E+00  0.00000000E+00
  0.00000000E+00  0.00000000E+00  0.00000000E+00
  0.00000000E+00  0.00000000E+00  0.00000000E+00
  0.00000000E+00  0.00000000E+00  0.00000000E+00
  0.00000000E+00  0.00000000E+00  0.00000000E+00
  0.00000000E+00  0.00000000E+00  0.00000000E+00
  0.00000000E+00  0.00000000E+00  0.00000000E+00
