Li9 Ti7 Fe1 Ni1 O18
1.0
0.059415 6.346457 6.215670
6.375656 0.043784 6.230905
4.261136 4.252140 0.018063
Li Ti Fe Ni O
9 7 1 1 18
direct
0.000579 0.004941 0.501432 Li
0.993909 0.329598 0.489263 Li
0.340536 0.996954 0.009540 Li
0.345766 0.990008 0.482976 Li
0.332309 0.685400 0.505452 Li
0.663356 0.998908 0.996021 Li
0.661472 0.996278 0.513755 Li
0.676360 0.323852 0.511929 Li
0.663696 0.675498 0.482322 Li
0.002782 0.007344 0.989185 Ti
0.000698 0.656967 0.506782 Ti
0.328798 0.321309 0.996393 Ti
0.328967 0.335538 0.502457 Ti
0.336172 0.671426 0.000296 Ti
0.671229 0.329369 0.001116 Ti
0.651283 0.677790 0.013934 Ti
0.001708 0.331431 0.008259 Fe
0.987926 0.677333 0.998016 Ni
0.176308 0.171423 0.243561 O
0.164328 0.168885 0.757016 O
0.168544 0.496750 0.242275 O
0.175751 0.508579 0.741393 O
0.159230 0.828923 0.246116 O
0.164739 0.833159 0.772565 O
0.491942 0.183247 0.234870 O
0.488714 0.182411 0.746083 O
0.497990 0.499369 0.250333 O
0.494683 0.493468 0.783683 O
0.511464 0.821922 0.234565 O
0.504021 0.820036 0.762836 O
0.828603 0.162708 0.236756 O
0.835909 0.164168 0.772779 O
0.830180 0.506111 0.223459 O
0.829198 0.503422 0.746440 O
0.855859 0.826445 0.248720 O
0.834993 0.819032 0.747423 O
