Li9 Ti4 V3 Fe1 Cu1 O18
1.0
-0.034859 6.336472 6.300652
6.374546 -0.012954 6.279085
4.246717 4.206994 -0.005630
Li Ti V Fe Cu O
9 4 3 1 1 18
direct
0.000687 0.993537 0.502885 Li
0.010123 0.337507 0.991769 Li
0.013254 0.335112 0.485179 Li
0.322868 0.341323 0.004554 Li
0.312691 0.351743 0.499014 Li
0.322953 0.667063 0.015496 Li
0.326222 0.665824 0.496226 Li
0.672439 0.991870 0.991753 Li
0.674127 0.988753 0.514525 Li
0.026114 0.662480 0.974632 Ti
0.316779 0.014441 0.005943 Ti
0.657215 0.315605 0.019849 Ti
0.658302 0.314887 0.519407 Ti
0.987606 0.007381 0.007345 V
0.669813 0.664973 0.999198 V
0.668403 0.672529 0.494207 V
0.340751 0.004126 0.491061 Fe
0.013085 0.663506 0.495453 Cu
0.181947 0.158051 0.228663 O
0.174044 0.162328 0.761429 O
0.154143 0.511176 0.233146 O
0.163206 0.509290 0.764580 O
0.179027 0.853072 0.220143 O
0.158400 0.837002 0.760838 O
0.505339 0.171693 0.240191 O
0.506520 0.168113 0.744445 O
0.513863 0.482866 0.254673 O
0.521574 0.489103 0.734344 O
0.504118 0.825824 0.242539 O
0.505108 0.832134 0.759059 O
0.821295 0.175980 0.256107 O
0.822314 0.177395 0.748804 O
0.824842 0.506057 0.249088 O
0.802861 0.500194 0.772839 O
0.829492 0.826320 0.245408 O
0.838474 0.820741 0.775206 O
