Li9 Sc1 V1 Cr1 Fe4 Co2 O18              
   1.00000000000000     
     0.0100700000000000    6.4188120000000000    6.2570519999999998
     6.2699210000000001    0.0197400000000000    6.2471300000000003
     4.1857660000000001    4.2787350000000002    0.0074920000000000
   Li   Sc   V    Cr   Fe   Co   O 
     9     1     1     1     4     2    18
Direct
  0.9919989999999999  0.0023949999999999  0.9967449999999971
  0.9861659999999972  0.0079259999999977  0.5078370000000021
  0.9891859999999966  0.3331420000000023  0.5049149999999969
  0.9881940000000000  0.6669720000000012  0.0162449999999978
  0.3263800000000003  0.9997240000000005  0.5098660000000024
  0.6837159999999969  0.9863830000000036  0.4942849999999979
  0.6808630000000022  0.3286149999999992  0.9893050000000017
  0.6783310000000000  0.6676829999999967  0.9812179999999984
  0.6870059999999967  0.6590050000000005  0.5052310000000020
  0.3296199999999985  0.6772520000000029  0.5018099999999990
  0.3443919999999991  0.3204289999999972  0.4729060000000018
  0.6725589999999997  0.3291460000000015  0.5011810000000025
  0.9861480000000000  0.3385180000000005  0.0065159999999977
  0.3335009999999983  0.0037519999999986  0.9958189999999973
  0.3341169999999991  0.6784159999999986  0.9810950000000034
  0.6959379999999982  0.9685149999999965  0.0072339999999969
  0.9861580000000032  0.6778699999999986  0.5010219999999990
  0.3268879999999967  0.3344829999999988  0.0077520000000035
  0.1702259999999995  0.1828969999999970  0.2125130000000013
  0.1757490000000033  0.1736580000000032  0.7499520000000004
  0.1839670000000027  0.4967550000000003  0.2519940000000034
  0.1743200000000016  0.4938720000000032  0.7195070000000001
  0.1700370000000007  0.8314799999999991  0.2467929999999967
  0.1765430000000023  0.8211920000000035  0.7634630000000016
  0.4922919999999991  0.1688479999999970  0.2728889999999993
  0.4860589999999974  0.1814150000000012  0.7445329999999970
  0.4929419999999993  0.4885390000000029  0.2698809999999980
  0.4911200000000022  0.4937690000000003  0.7606790000000032
  0.4904599999999988  0.8528019999999970  0.2319340000000025
  0.4861920000000026  0.8325140000000033  0.7760329999999982
  0.8308170000000032  0.1829830000000001  0.2470519999999965
  0.8098659999999995  0.1642000000000010  0.7592640000000017
  0.8312779999999975  0.4841929999999977  0.2622599999999977
  0.8541700000000034  0.5043089999999992  0.7455769999999973
  0.8300079999999994  0.8324410000000029  0.2490310000000022
  0.8327930000000023  0.8339100000000030  0.7556620000000009
 
  0.00000000E+00  0.00000000E+00  0.00000000E+00
  0.00000000E+00  0.00000000E+00  0.00000000E+00
  0.00000000E+00  0.00000000E+00  0.00000000E+00
  0.00000000E+00  0.00000000E+00  0.00000000E+00
  0.00000000E+00  0.00000000E+00  0.00000000E+00
  0.00000000E+00  0.00000000E+00  0.00000000E+00
  0.00000000E+00  0.00000000E+00  0.00000000E+00
  0.00000000E+00  0.00000000E+00  0.00000000E+00
  0.00000000E+00  0.00000000E+00  0.00000000E+00
  0.00000000E+00  0.00000000E+00  0.00000000E+00
  0.00000000E+00  0.00000000E+00  0.00000000E+00
  0.00000000E+00  0.00000000E+00  0.00000000E+00
  0.00000000E+00  0.00000000E+00  0.00000000E+00
  0.00000000E+00  0.00000000E+00  0.00000000E+00
  0.00000000E+00  0.00000000E+00  0.00000000E+00
  0.00000000E+00  0.00000000E+00  0.00000000E+00
  0.00000000E+00  0.00000000E+00  0.00000000E+00
  0.00000000E+00  0.00000000E+00  0.00000000E+00
  0.00000000E+00  0.00000000E+00  0.00000000E+00
  0.00000000E+00  0.00000000E+00  0.00000000E+00
  0.00000000E+00  0.00000000E+00  0.00000000E+00
  0.00000000E+00  0.00000000E+00  0.00000000E+00
  0.00000000E+00  0.00000000E+00  0.00000000E+00
  0.00000000E+00  0.00000000E+00  0.00000000E+00
  0.00000000E+00  0.00000000E+00  0.00000000E+00
  0.00000000E+00  0.00000000E+00  0.00000000E+00
  0.00000000E+00  0.00000000E+00  0.00000000E+00
  0.00000000E+00  0.00000000E+00  0.00000000E+00
  0.00000000E+00  0.00000000E+00  0.00000000E+00
  0.00000000E+00  0.00000000E+00  0.00000000E+00
  0.00000000E+00  0.00000000E+00  0.00000000E+00
  0.00000000E+00  0.00000000E+00  0.00000000E+00
  0.00000000E+00  0.00000000E+00  0.00000000E+00
  0.00000000E+00  0.00000000E+00  0.00000000E+00
  0.00000000E+00  0.00000000E+00  0.00000000E+00
  0.00000000E+00  0.00000000E+00  0.00000000E+00
