Li9 V3 Cr2 Fe2 Co1 Ni1 O18              
   1.00000000000000     
     0.0163460000000000    6.2253200000000000    6.3778079999999999
     6.2445120000000003    0.0270790000000000    6.3671110000000004
     4.1605210000000001    4.1403699999999999    0.0207730000000000
   Li   V    Cr   Fe   Co   Ni   O 
     9     3     2     2     1     1    18
Direct
  0.0052519999999987  0.0010839999999988  0.9946669999999997
  0.0050609999999978  0.3309539999999984  0.4955799999999968
  0.0034309999999991  0.6635410000000022  0.0029019999999988
  0.3301039999999986  0.0085109999999986  0.4983649999999997
  0.3329340000000016  0.3282230000000013  0.0032309999999995
  0.3278970000000001  0.6634109999999964  0.5086730000000017
  0.6605920000000012  0.0089449999999971  0.9949149999999989
  0.6636379999999988  0.9986960000000025  0.5043750000000031
  0.6649669999999972  0.6663730000000001  0.9993189999999998
  0.0011750000000035  0.9930420000000026  0.5307710000000014
  0.6585430000000017  0.6842570000000023  0.4672959999999975
  0.6701229999999967  0.3223600000000033  0.0041870000000017
  0.9971079999999972  0.3362029999999976  0.0051249999999996
  0.3295499999999976  0.6729610000000008  0.9951780000000028
  0.9992009999999993  0.6672340000000005  0.4962140000000019
  0.3369259999999983  0.3234330000000014  0.5055430000000030
  0.3442650000000000  0.9970169999999996  0.9932859999999977
  0.6611359999999991  0.3334180000000018  0.5055029999999974
  0.1486120000000000  0.1543220000000005  0.2636120000000020
  0.1671570000000031  0.1783059999999992  0.7550659999999993
  0.1740080000000006  0.5106779999999986  0.2473389999999966
  0.1527260000000012  0.4952419999999975  0.7534259999999975
  0.1660979999999981  0.8281440000000018  0.2552850000000007
  0.1653420000000025  0.8385590000000036  0.7451679999999996
  0.5055690000000013  0.1806669999999997  0.2379770000000008
  0.4948759999999979  0.1745120000000000  0.7430790000000016
  0.4917149999999992  0.4974630000000033  0.2450440000000000
  0.5118650000000002  0.5084670000000031  0.7479259999999996
  0.5142280000000028  0.8241370000000003  0.2557359999999989
  0.5002780000000016  0.8192299999999975  0.7483000000000004
  0.8385880000000014  0.1757670000000005  0.2436909999999983
  0.8371420000000001  0.1579059999999970  0.7451489999999978
  0.8235329999999976  0.4996519999999975  0.2609139999999996
  0.8314299999999974  0.4982919999999993  0.7529880000000020
  0.8275020000000026  0.8115110000000030  0.2837230000000019
  0.8574259999999967  0.8474799999999973  0.7104479999999995
 
  0.00000000E+00  0.00000000E+00  0.00000000E+00
  0.00000000E+00  0.00000000E+00  0.00000000E+00
  0.00000000E+00  0.00000000E+00  0.00000000E+00
  0.00000000E+00  0.00000000E+00  0.00000000E+00
  0.00000000E+00  0.00000000E+00  0.00000000E+00
  0.00000000E+00  0.00000000E+00  0.00000000E+00
  0.00000000E+00  0.00000000E+00  0.00000000E+00
  0.00000000E+00  0.00000000E+00  0.00000000E+00
  0.00000000E+00  0.00000000E+00  0.00000000E+00
  0.00000000E+00  0.00000000E+00  0.00000000E+00
  0.00000000E+00  0.00000000E+00  0.00000000E+00
  0.00000000E+00  0.00000000E+00  0.00000000E+00
  0.00000000E+00  0.00000000E+00  0.00000000E+00
  0.00000000E+00  0.00000000E+00  0.00000000E+00
  0.00000000E+00  0.00000000E+00  0.00000000E+00
  0.00000000E+00  0.00000000E+00  0.00000000E+00
  0.00000000E+00  0.00000000E+00  0.00000000E+00
  0.00000000E+00  0.00000000E+00  0.00000000E+00
  0.00000000E+00  0.00000000E+00  0.00000000E+00
  0.00000000E+00  0.00000000E+00  0.00000000E+00
  0.00000000E+00  0.00000000E+00  0.00000000E+00
  0.00000000E+00  0.00000000E+00  0.00000000E+00
  0.00000000E+00  0.00000000E+00  0.00000000E+00
  0.00000000E+00  0.00000000E+00  0.00000000E+00
  0.00000000E+00  0.00000000E+00  0.00000000E+00
  0.00000000E+00  0.00000000E+00  0.00000000E+00
  0.00000000E+00  0.00000000E+00  0.00000000E+00
  0.00000000E+00  0.00000000E+00  0.00000000E+00
  0.00000000E+00  0.00000000E+00  0.00000000E+00
  0.00000000E+00  0.00000000E+00  0.00000000E+00
  0.00000000E+00  0.00000000E+00  0.00000000E+00
  0.00000000E+00  0.00000000E+00  0.00000000E+00
  0.00000000E+00  0.00000000E+00  0.00000000E+00
  0.00000000E+00  0.00000000E+00  0.00000000E+00
  0.00000000E+00  0.00000000E+00  0.00000000E+00
  0.00000000E+00  0.00000000E+00  0.00000000E+00
