Li4 Ti4 O8                              
   1.00000000000000     
    -0.0000680000000000    2.1108199999999999    2.1112440000000001
     2.1108760000000002   -2.1108310000000001   -0.0000560000000000
    11.0650960000000005   13.1752900000000004  -11.0657130000000006
   Li   Ti   O 
     4     4     8
Direct
  0.9905529999999985  0.0067530000000033  0.0215809999999976
  0.6301320000000032  0.3670060000000035  0.1028159999999971
  0.8733730000000008  0.1259739999999994  0.3796740000000014
  0.1254289999999969  0.8743010000000027  0.6235149999999976
  0.2476270000000014  0.7522189999999966  0.2576660000000004
  0.4994569999999996  0.5002240000000029  0.5017100000000028
  0.7512460000000019  0.2483029999999999  0.7452650000000034
  0.3775660000000016  0.6220509999999990  0.8664240000000021
  0.0643949999999975  0.9351789999999980  0.8058160000000001
  0.8139469999999989  0.1860909999999976  0.5589310000000012
  0.4370469999999997  0.5624680000000026  0.6878019999999978
  0.1849390000000000  0.8144830000000027  0.4446250000000020
  0.9305480000000017  0.0686830000000000  0.2087810000000019
  0.5617200000000011  0.4377849999999981  0.3158230000000017
  0.6946889999999968  0.3050289999999976  0.9152940000000029
  0.3103780000000000  0.6868979999999993  0.0622789999999966
 
  0.00000000E+00  0.00000000E+00  0.00000000E+00
  0.00000000E+00  0.00000000E+00  0.00000000E+00
  0.00000000E+00  0.00000000E+00  0.00000000E+00
  0.00000000E+00  0.00000000E+00  0.00000000E+00
  0.00000000E+00  0.00000000E+00  0.00000000E+00
  0.00000000E+00  0.00000000E+00  0.00000000E+00
  0.00000000E+00  0.00000000E+00  0.00000000E+00
  0.00000000E+00  0.00000000E+00  0.00000000E+00
  0.00000000E+00  0.00000000E+00  0.00000000E+00
  0.00000000E+00  0.00000000E+00  0.00000000E+00
  0.00000000E+00  0.00000000E+00  0.00000000E+00
  0.00000000E+00  0.00000000E+00  0.00000000E+00
  0.00000000E+00  0.00000000E+00  0.00000000E+00
  0.00000000E+00  0.00000000E+00  0.00000000E+00
  0.00000000E+00  0.00000000E+00  0.00000000E+00
  0.00000000E+00  0.00000000E+00  0.00000000E+00
