Li4 Ti4 O8                              
   1.00000000000000     
    -0.0000400000000000    2.1259039999999998    2.1292010000000001
     4.0562310000000004    0.0002460000000000   -0.0003190000000000
     0.0010880000000000    8.9661399999999993   -8.9796809999999994
   Li   Ti   O 
     4     4     8
Direct
  0.9988779999999977  0.0031210000000002  0.0423570000000026
  0.5004860000000022  0.5017479999999992  0.1388409999999993
  0.0000259999999983  0.9965320000000020  0.2257200000000026
  0.9994399999999999  0.9970659999999967  0.4898889999999980
  0.4998250000000013  0.4715780000000009  0.3796869999999970
  0.4984350000000006  0.5020170000000022  0.6220069999999964
  0.0039820000000006  0.0025339999999971  0.7339839999999995
  0.4936000000000007  0.5011700000000019  0.8752110000000002
  0.5019869999999997  0.0019220000000004  0.6168679999999966
  0.9975370000000012  0.5025970000000015  0.7468179999999975
  0.4991460000000032  0.0139679999999984  0.3918609999999987
  0.9995759999999976  0.5033120000000011  0.5026980000000023
  0.4995040000000017  0.0017210000000034  0.1298579999999987
  0.9988779999999977  0.5038430000000034  0.2837180000000004
  0.5044899999999970  0.0015349999999970  0.8498870000000025
  0.9986510000000024  0.5013339999999999  0.9672849999999968
 
  0.00000000E+00  0.00000000E+00  0.00000000E+00
  0.00000000E+00  0.00000000E+00  0.00000000E+00
  0.00000000E+00  0.00000000E+00  0.00000000E+00
  0.00000000E+00  0.00000000E+00  0.00000000E+00
  0.00000000E+00  0.00000000E+00  0.00000000E+00
  0.00000000E+00  0.00000000E+00  0.00000000E+00
  0.00000000E+00  0.00000000E+00  0.00000000E+00
  0.00000000E+00  0.00000000E+00  0.00000000E+00
  0.00000000E+00  0.00000000E+00  0.00000000E+00
  0.00000000E+00  0.00000000E+00  0.00000000E+00
  0.00000000E+00  0.00000000E+00  0.00000000E+00
  0.00000000E+00  0.00000000E+00  0.00000000E+00
  0.00000000E+00  0.00000000E+00  0.00000000E+00
  0.00000000E+00  0.00000000E+00  0.00000000E+00
  0.00000000E+00  0.00000000E+00  0.00000000E+00
  0.00000000E+00  0.00000000E+00  0.00000000E+00
