Li9 Mn6 Cr1 Fe1 Co1 O18                 
   1.00000000000000     
     0.0252740000000000    6.2600040000000003    6.2750399999999997
     6.4017470000000003    0.0129740000000000    6.2868959999999996
     4.2874429999999997    4.2004239999999999   -0.0105530000000000
   Li   Mn   Cr   Fe   Co   O 
     9     6     1     1     1    18
Direct
  0.0065480000000022  0.9977200000000011  0.9924230000000023
  0.0052540000000008  0.9967129999999997  0.5014049999999983
  0.3337730000000008  0.0039090000000002  0.0021320000000031
  0.3312179999999998  0.9969310000000036  0.4998530000000017
  0.3489560000000012  0.3135070000000013  0.5048230000000018
  0.3285259999999965  0.6832199999999986  0.4932190000000034
  0.6593239999999980  0.0120119999999986  0.9915499999999966
  0.6522509999999997  0.0211419999999976  0.5066130000000015
  0.6656789999999972  0.3128340000000023  0.5126980000000003
  0.0035489999999996  0.3204950000000011  0.0065179999999998
  0.0041289999999989  0.3166590000000014  0.5031910000000011
  0.0065110000000033  0.6734379999999973  0.4897020000000012
  0.3457399999999993  0.3173540000000017  0.9946600000000032
  0.6632260000000016  0.3273659999999978  0.0115199999999973
  0.6598469999999992  0.6779739999999990  0.4980430000000027
  0.0060739999999981  0.6703850000000031  0.9899059999999977
  0.6490539999999996  0.6859329999999986  0.0023630000000026
  0.3334180000000018  0.6679069999999996  0.9993260000000035
  0.1637899999999988  0.1580140000000014  0.2609420000000000
  0.1403120000000015  0.1938669999999973  0.7453900000000004
  0.1799049999999980  0.4960390000000032  0.2149059999999992
  0.1527900000000031  0.4960620000000020  0.7701849999999979
  0.1728260000000006  0.8047329999999988  0.2480720000000005
  0.1717579999999970  0.8139139999999969  0.7770999999999972
  0.4945790000000017  0.1720960000000034  0.2385969999999986
  0.4880139999999997  0.1793329999999997  0.7651710000000023
  0.5112390000000033  0.5056140000000013  0.2086200000000034
  0.5048930000000027  0.5158029999999982  0.7629400000000004
  0.5162959999999970  0.8112429999999975  0.2584650000000011
  0.4837180000000032  0.8280419999999964  0.7825119999999970
  0.8307360000000017  0.1878590000000031  0.2252390000000020
  0.8219449999999995  0.1937369999999987  0.7609119999999976
  0.8544089999999969  0.4886180000000024  0.2365649999999988
  0.8300029999999978  0.5290120000000016  0.7252650000000003
  0.8441740000000024  0.8079650000000029  0.2538539999999969
  0.8355389999999971  0.8225509999999971  0.7653210000000001
 
  0.00000000E+00  0.00000000E+00  0.00000000E+00
  0.00000000E+00  0.00000000E+00  0.00000000E+00
  0.00000000E+00  0.00000000E+00  0.00000000E+00
  0.00000000E+00  0.00000000E+00  0.00000000E+00
  0.00000000E+00  0.00000000E+00  0.00000000E+00
  0.00000000E+00  0.00000000E+00  0.00000000E+00
  0.00000000E+00  0.00000000E+00  0.00000000E+00
  0.00000000E+00  0.00000000E+00  0.00000000E+00
  0.00000000E+00  0.00000000E+00  0.00000000E+00
  0.00000000E+00  0.00000000E+00  0.00000000E+00
  0.00000000E+00  0.00000000E+00  0.00000000E+00
  0.00000000E+00  0.00000000E+00  0.00000000E+00
  0.00000000E+00  0.00000000E+00  0.00000000E+00
  0.00000000E+00  0.00000000E+00  0.00000000E+00
  0.00000000E+00  0.00000000E+00  0.00000000E+00
  0.00000000E+00  0.00000000E+00  0.00000000E+00
  0.00000000E+00  0.00000000E+00  0.00000000E+00
  0.00000000E+00  0.00000000E+00  0.00000000E+00
  0.00000000E+00  0.00000000E+00  0.00000000E+00
  0.00000000E+00  0.00000000E+00  0.00000000E+00
  0.00000000E+00  0.00000000E+00  0.00000000E+00
  0.00000000E+00  0.00000000E+00  0.00000000E+00
  0.00000000E+00  0.00000000E+00  0.00000000E+00
  0.00000000E+00  0.00000000E+00  0.00000000E+00
  0.00000000E+00  0.00000000E+00  0.00000000E+00
  0.00000000E+00  0.00000000E+00  0.00000000E+00
  0.00000000E+00  0.00000000E+00  0.00000000E+00
  0.00000000E+00  0.00000000E+00  0.00000000E+00
  0.00000000E+00  0.00000000E+00  0.00000000E+00
  0.00000000E+00  0.00000000E+00  0.00000000E+00
  0.00000000E+00  0.00000000E+00  0.00000000E+00
  0.00000000E+00  0.00000000E+00  0.00000000E+00
  0.00000000E+00  0.00000000E+00  0.00000000E+00
  0.00000000E+00  0.00000000E+00  0.00000000E+00
  0.00000000E+00  0.00000000E+00  0.00000000E+00
  0.00000000E+00  0.00000000E+00  0.00000000E+00
