Li9 Ti1 Fe4 Cu4 O18                     
   1.00000000000000     
     0.0067870000000000    6.2928569999999997    6.2312469999999998
     6.3055709999999996    0.0135280000000000    6.2244630000000001
     4.2099970000000004    4.1970169999999998    0.0027980000000000
   Li   Ti   Fe   Cu   O 
     9     1     4     4    18
Direct
  0.0070779999999999  0.9962870000000024  0.4956859999999992
  0.0134249999999980  0.3347350000000020  0.9912479999999988
  0.0030149999999978  0.6626359999999991  0.0004360000000005
  0.3332750000000004  0.0076419999999970  0.9947179999999989
  0.3243849999999995  0.3340350000000001  0.0008199999999974
  0.3229949999999988  0.3339190000000016  0.5115880000000033
  0.3244650000000036  0.6677680000000024  0.0055449999999979
  0.6649859999999990  0.9923199999999994  0.0055169999999976
  0.6679850000000016  0.6721410000000034  0.4939949999999982
  0.6621779999999973  0.3276600000000016  0.5132430000000028
  0.0086170000000010  0.3401550000000029  0.4822670000000002
  0.3377890000000008  0.9986109999999968  0.4953050000000019
  0.3178479999999979  0.6740489999999966  0.5080179999999999
  0.6595719999999972  0.3348370000000003  0.0039069999999981
  0.0075160000000025  0.9914950000000005  0.0029749999999993
  0.0015179999999972  0.6649839999999969  0.5012090000000029
  0.6679150000000007  0.9963869999999986  0.5013369999999995
  0.6673649999999967  0.6727050000000006  0.9969460000000012
  0.5014359999999982  0.8454309999999978  0.7324569999999966
  0.8438689999999980  0.8428710000000024  0.2545020000000022
  0.8241879999999995  0.8259410000000003  0.7434229999999999
  0.1707409999999996  0.1687579999999969  0.2681929999999966
  0.1585460000000012  0.1557949999999977  0.7462209999999985
  0.1534079999999989  0.5034890000000019  0.2677509999999970
  0.1673789999999968  0.5118950000000027  0.7316149999999979
  0.1653099999999981  0.8205170000000024  0.2685609999999983
  0.1820269999999979  0.8337349999999972  0.7348799999999969
  0.5094420000000000  0.1612190000000027  0.2558969999999974
  0.5151279999999971  0.1706610000000026  0.7269750000000030
  0.5187260000000009  0.5014409999999998  0.2421780000000027
  0.5062849999999983  0.4840939999999989  0.7461109999999991
  0.4897800000000032  0.8306660000000008  0.2626569999999973
  0.8145030000000020  0.1755610000000019  0.2589839999999981
  0.8233400000000017  0.1864759999999990  0.7383949999999970
  0.8311020000000013  0.4866979999999970  0.2649070000000009
  0.8328649999999982  0.4923860000000033  0.7515349999999970
 
  0.00000000E+00  0.00000000E+00  0.00000000E+00
  0.00000000E+00  0.00000000E+00  0.00000000E+00
  0.00000000E+00  0.00000000E+00  0.00000000E+00
  0.00000000E+00  0.00000000E+00  0.00000000E+00
  0.00000000E+00  0.00000000E+00  0.00000000E+00
  0.00000000E+00  0.00000000E+00  0.00000000E+00
  0.00000000E+00  0.00000000E+00  0.00000000E+00
  0.00000000E+00  0.00000000E+00  0.00000000E+00
  0.00000000E+00  0.00000000E+00  0.00000000E+00
  0.00000000E+00  0.00000000E+00  0.00000000E+00
  0.00000000E+00  0.00000000E+00  0.00000000E+00
  0.00000000E+00  0.00000000E+00  0.00000000E+00
  0.00000000E+00  0.00000000E+00  0.00000000E+00
  0.00000000E+00  0.00000000E+00  0.00000000E+00
  0.00000000E+00  0.00000000E+00  0.00000000E+00
  0.00000000E+00  0.00000000E+00  0.00000000E+00
  0.00000000E+00  0.00000000E+00  0.00000000E+00
  0.00000000E+00  0.00000000E+00  0.00000000E+00
  0.00000000E+00  0.00000000E+00  0.00000000E+00
  0.00000000E+00  0.00000000E+00  0.00000000E+00
  0.00000000E+00  0.00000000E+00  0.00000000E+00
  0.00000000E+00  0.00000000E+00  0.00000000E+00
  0.00000000E+00  0.00000000E+00  0.00000000E+00
  0.00000000E+00  0.00000000E+00  0.00000000E+00
  0.00000000E+00  0.00000000E+00  0.00000000E+00
  0.00000000E+00  0.00000000E+00  0.00000000E+00
  0.00000000E+00  0.00000000E+00  0.00000000E+00
  0.00000000E+00  0.00000000E+00  0.00000000E+00
  0.00000000E+00  0.00000000E+00  0.00000000E+00
  0.00000000E+00  0.00000000E+00  0.00000000E+00
  0.00000000E+00  0.00000000E+00  0.00000000E+00
  0.00000000E+00  0.00000000E+00  0.00000000E+00
  0.00000000E+00  0.00000000E+00  0.00000000E+00
  0.00000000E+00  0.00000000E+00  0.00000000E+00
  0.00000000E+00  0.00000000E+00  0.00000000E+00
  0.00000000E+00  0.00000000E+00  0.00000000E+00
