Li8 Ti6 O14
1.0
-0.000743 4.128703 4.072241
14.673014 2.078168 16.272118
6.287389 2.064773 4.070621
Li Ti O
8 6 14
direct
0.908412 0.153364 0.976826 Li
0.784938 0.424791 0.018035 Li
0.713237 0.571219 0.000569 Li
0.638264 0.720116 0.981488 Li
0.510300 0.993611 0.021918 Li
0.425756 0.126204 0.040661 Li
0.369721 0.285922 0.989287 Li
0.071103 0.861997 0.983089 Li
0.997073 0.009091 0.982722 Ti
0.863093 0.285304 0.993462 Ti
0.571156 0.862122 0.989793 Ti
0.280216 0.425775 0.015130 Ti
0.229120 0.554594 0.037273 Ti
0.150525 0.723621 0.974166 Ti
0.281653 0.912979 0.534797 O
0.210773 0.072509 0.500847 O
0.139123 0.214929 0.500567 O
0.061017 0.354498 0.506972 O
0.001332 0.498976 0.497020 O
0.935631 0.642638 0.494059 O
0.887295 0.791077 0.487572 O
0.786139 0.925766 0.510536 O
0.713481 0.068604 0.506849 O
0.641347 0.219072 0.482358 O
0.550036 0.369754 0.469208 O
0.498429 0.492903 0.526070 O
0.428197 0.644961 0.495994 O
0.361627 0.788475 0.492858 O
