Li4 Ti4 O8                              
   1.00000000000000     
     4.2210570000000001   -0.0010730000000000   -0.0009690000000000
     2.1109300000000002    4.1913760000000000   -6.4038209999999998
    -2.1120930000000002    4.2346950000000003    2.1629700000000001
   Li   Ti   O 
     4     4     8
Direct
  0.0235819999999975  0.0130830000000017  0.0101330000000033
  0.6361130000000017  0.1331630000000033  0.3809070000000006
  0.9054059999999993  0.3711369999999974  0.1319599999999994
  0.1341380000000001  0.6341010000000011  0.9026449999999997
  0.2633659999999978  0.2531310000000033  0.7802719999999965
  0.5078060000000022  0.5142390000000034  0.5053940000000026
  0.7596320000000034  0.7718989999999977  0.2407759999999968
  0.3839410000000001  0.8963719999999995  0.6401249999999976
  0.0236129999999974  0.5119830000000007  0.5095379999999992
  0.1442699999999988  0.1248840000000015  0.4141440000000003
  0.6356099999999998  0.6385909999999981  0.8847560000000030
  0.7695610000000030  0.2581459999999964  0.7728430000000017
  0.2445859999999982  0.7726200000000034  0.2364060000000023
  0.8990739999999988  0.8915459999999982  0.6403290000000013
  0.3842590000000001  0.3851650000000006  0.1290729999999982
  0.5114009999999993  0.0032190000000014  0.0012960000000035
 
  0.00000000E+00  0.00000000E+00  0.00000000E+00
  0.00000000E+00  0.00000000E+00  0.00000000E+00
  0.00000000E+00  0.00000000E+00  0.00000000E+00
  0.00000000E+00  0.00000000E+00  0.00000000E+00
  0.00000000E+00  0.00000000E+00  0.00000000E+00
  0.00000000E+00  0.00000000E+00  0.00000000E+00
  0.00000000E+00  0.00000000E+00  0.00000000E+00
  0.00000000E+00  0.00000000E+00  0.00000000E+00
  0.00000000E+00  0.00000000E+00  0.00000000E+00
  0.00000000E+00  0.00000000E+00  0.00000000E+00
  0.00000000E+00  0.00000000E+00  0.00000000E+00
  0.00000000E+00  0.00000000E+00  0.00000000E+00
  0.00000000E+00  0.00000000E+00  0.00000000E+00
  0.00000000E+00  0.00000000E+00  0.00000000E+00
  0.00000000E+00  0.00000000E+00  0.00000000E+00
  0.00000000E+00  0.00000000E+00  0.00000000E+00
