Li4 Ti2 Ni2 O8
1.0
-1.993358 4.132086 -1.997904
2.009498 4.147788 2.010978
6.002103 0.009601 -2.002359
Li Ti Ni O
4 2 2 8
direct
0.007293 0.968319 0.009977 Li
0.129098 0.358050 0.257926 Li
0.233897 0.734038 0.468873 Li
0.355681 0.123739 0.716774 Li
0.490395 0.478561 0.010185 Ti
0.842648 0.613471 0.716629 Ti
0.602727 0.852028 0.234862 Ni
0.730272 0.240013 0.491939 Ni
0.955286 0.485892 0.493047 O
0.377705 0.606162 0.233730 O
0.507510 0.961661 0.492924 O
0.623268 0.380907 0.737760 O
0.709713 0.711122 0.959030 O
0.825521 0.130381 0.233882 O
0.114347 0.822413 0.737447 O
0.248649 0.269604 0.959356 O
