Li4 Mn2 Ni2 O8
1.0
2.068571 4.229604 2.041693
4.065675 -2.084194 -2.030220
0.005544 4.250885 -4.130584
Li Mn Ni O
4 2 2 8
direct
0.500546 0.249509 0.146117 Li
0.997566 0.496426 0.261121 Li
0.505265 0.742635 0.371797 Li
0.503026 0.262295 0.604198 Li
0.997295 0.004826 0.008539 Mn
0.001488 0.497424 0.744726 Mn
0.003768 0.002206 0.489800 Ni
0.497052 0.746155 0.878076 Ni
0.767577 0.618172 0.585335 O
0.229918 0.859773 0.705771 O
0.765608 0.641592 0.041061 O
0.232245 0.892986 0.163734 O
0.762415 0.106653 0.295685 O
0.235772 0.386007 0.457702 O
0.776645 0.132521 0.820179 O
0.221066 0.368446 0.925689 O
