Li9 Sc3 Ti1 Mn1 Cr1 Fe2 Co1 O18         
   1.00000000000000     
     0.0297650000000000    6.3393480000000002    6.3551799999999998
     6.4549849999999998    0.0079310000000000    6.3772339999999996
     4.2860420000000001    4.2237749999999998    0.0223800000000000
   Li   Sc   Ti   Mn   Cr   Fe   Co   O 
     9     3     1     1     1     2     1    18
Direct
  0.0214209999999966  0.3350879999999989  0.4799539999999993
  0.0159310000000019  0.6580640000000031  0.4756029999999996
  0.3425780000000032  0.0061219999999977  0.9770850000000024
  0.3383499999999984  0.0024230000000003  0.5088099999999969
  0.3260229999999993  0.3288319999999985  0.0244829999999965
  0.3305149999999983  0.3235170000000025  0.4929249999999996
  0.3288549999999972  0.6701759999999979  0.9982889999999998
  0.6430170000000004  0.0052400000000006  0.5091699999999975
  0.6588279999999997  0.6790909999999997  0.5032599999999974
  0.0181260000000023  0.9924830000000000  0.9953930000000000
  0.0222410000000011  0.3310280000000034  0.9902749999999969
  0.6586149999999975  0.6827869999999976  0.9744529999999969
  0.6511860000000027  0.3444130000000030  0.9908179999999973
  0.9987119999999976  0.6591090000000008  0.0254410000000007
  0.6689870000000013  0.3259710000000027  0.5002619999999993
  0.3172309999999996  0.6840370000000036  0.5054859999999977
  0.6470219999999998  0.9996149999999986  0.0226800000000011
  0.0080829999999992  0.9991079999999997  0.4939180000000007
  0.1573070000000030  0.1634349999999998  0.2578079999999972
  0.1597920000000030  0.1685019999999966  0.7590130000000030
  0.1503149999999991  0.5136790000000033  0.2398710000000008
  0.1649650000000022  0.5180190000000024  0.7540600000000026
  0.1650440000000017  0.8293439999999990  0.2654250000000005
  0.1770440000000022  0.8315869999999990  0.7439559999999972
  0.5167569999999984  0.1733529999999988  0.2270240000000001
  0.5222869999999986  0.1597930000000005  0.7524640000000034
  0.5099590000000020  0.4846709999999987  0.2508529999999993
  0.5138099999999994  0.4851519999999994  0.7413999999999987
  0.4984820000000028  0.8243900000000011  0.2528190000000023
  0.5051849999999973  0.8322959999999995  0.7462189999999964
  0.8276269999999997  0.1758730000000028  0.2370360000000034
  0.8185140000000004  0.1711039999999997  0.7657039999999995
  0.8259889999999999  0.4880509999999987  0.2484260000000020
  0.8149349999999984  0.4859730000000013  0.7805249999999972
  0.8376530000000031  0.8374450000000024  0.2251550000000009
  0.8386139999999997  0.8302279999999982  0.7839349999999996
 
  0.00000000E+00  0.00000000E+00  0.00000000E+00
  0.00000000E+00  0.00000000E+00  0.00000000E+00
  0.00000000E+00  0.00000000E+00  0.00000000E+00
  0.00000000E+00  0.00000000E+00  0.00000000E+00
  0.00000000E+00  0.00000000E+00  0.00000000E+00
  0.00000000E+00  0.00000000E+00  0.00000000E+00
  0.00000000E+00  0.00000000E+00  0.00000000E+00
  0.00000000E+00  0.00000000E+00  0.00000000E+00
  0.00000000E+00  0.00000000E+00  0.00000000E+00
  0.00000000E+00  0.00000000E+00  0.00000000E+00
  0.00000000E+00  0.00000000E+00  0.00000000E+00
  0.00000000E+00  0.00000000E+00  0.00000000E+00
  0.00000000E+00  0.00000000E+00  0.00000000E+00
  0.00000000E+00  0.00000000E+00  0.00000000E+00
  0.00000000E+00  0.00000000E+00  0.00000000E+00
  0.00000000E+00  0.00000000E+00  0.00000000E+00
  0.00000000E+00  0.00000000E+00  0.00000000E+00
  0.00000000E+00  0.00000000E+00  0.00000000E+00
  0.00000000E+00  0.00000000E+00  0.00000000E+00
  0.00000000E+00  0.00000000E+00  0.00000000E+00
  0.00000000E+00  0.00000000E+00  0.00000000E+00
  0.00000000E+00  0.00000000E+00  0.00000000E+00
  0.00000000E+00  0.00000000E+00  0.00000000E+00
  0.00000000E+00  0.00000000E+00  0.00000000E+00
  0.00000000E+00  0.00000000E+00  0.00000000E+00
  0.00000000E+00  0.00000000E+00  0.00000000E+00
  0.00000000E+00  0.00000000E+00  0.00000000E+00
  0.00000000E+00  0.00000000E+00  0.00000000E+00
  0.00000000E+00  0.00000000E+00  0.00000000E+00
  0.00000000E+00  0.00000000E+00  0.00000000E+00
  0.00000000E+00  0.00000000E+00  0.00000000E+00
  0.00000000E+00  0.00000000E+00  0.00000000E+00
  0.00000000E+00  0.00000000E+00  0.00000000E+00
  0.00000000E+00  0.00000000E+00  0.00000000E+00
  0.00000000E+00  0.00000000E+00  0.00000000E+00
  0.00000000E+00  0.00000000E+00  0.00000000E+00
