Li9 Ti2 V2 Cr1 Fe1 Cu2 Ni1 O18
1.0
-0.003870 6.153075 6.287755
6.203725 -0.027228 6.310712
4.139118 4.120951 -0.021024
Li Ti V Cr Fe Cu Ni O
9 2 2 1 1 2 1 18
direct
0.011407 0.003547 0.990284 Li
0.007929 0.998454 0.490933 Li
0.988293 0.328282 0.524433 Li
0.000317 0.659020 0.506796 Li
0.319527 0.332971 0.507400 Li
0.335891 0.678315 0.486453 Li
0.680622 0.339915 0.981089 Li
0.676745 0.653153 0.994708 Li
0.670908 0.655014 0.507978 Li
0.333110 0.340469 0.989558 Ti
0.678186 0.995425 0.002490 Ti
0.668910 0.004065 0.496041 V
0.341341 0.670593 0.012793 V
-0.000546 0.666081 0.000465 Cr
0.995743 0.337156 0.987881 Fe
0.315203 0.003277 0.512121 Cu
0.673146 0.344528 0.481153 Cu
0.324425 0.998574 0.008777 Ni
0.164992 0.188656 0.223207 O
0.163964 0.166320 0.755526 O
0.179952 0.505186 0.219571 O
0.165957 0.493559 0.769484 O
0.175919 0.824617 0.240531 O
0.172610 0.808406 0.781309 O
0.503953 0.166473 0.241361 O
0.491657 0.161190 0.770944 O
0.490189 0.512226 0.228116 O
0.491546 0.489902 0.759876 O
0.493414 0.859820 0.250341 O
0.501374 0.834575 0.751493 O
0.812476 0.164249 0.279056 O
0.815904 0.155255 0.763917 O
0.853683 0.502257 0.216281 O
0.848737 0.485712 0.761475 O
0.829457 0.834164 0.245968 O
0.823060 0.838593 0.760191 O
