Li9 Sc2 Mn2 V2 Co1 Cu2 O18
1.0
-0.058219 6.252926 6.265765
6.291356 -0.021830 6.230290
4.200600 4.151089 -0.020513
Li Sc Mn V Co Cu O
9 2 2 2 1 2 18
direct
0.996757 0.991658 0.015692 Li
0.013694 0.663350 0.020668 Li
0.003477 0.665604 0.488590 Li
0.337146 0.997434 0.004807 Li
0.324220 0.353960 0.013028 Li
0.316641 0.651753 0.030043 Li
0.657664 0.338027 0.005636 Li
0.663097 0.328425 0.502657 Li
0.658751 0.676833 0.985277 Li
0.996760 0.343930 0.990834 Sc
0.330880 0.010046 0.504709 Sc
0.002821 0.995308 0.495157 Mn
0.672542 0.004022 0.975056 Mn
0.328043 0.655370 0.507282 V
0.671234 0.650471 0.498133 V
0.675231 -0.000591 0.481522 Co
0.003774 0.333116 0.496951 Cu
0.332578 0.334937 0.509988 Cu
0.166349 0.483240 0.288014 O
0.171892 0.172384 0.240576 O
0.182017 0.163343 0.762825 O
0.156726 0.516031 0.772776 O
0.160083 0.831516 0.282343 O
0.178500 0.828087 0.729623 O
0.529360 0.147499 0.221695 O
0.521904 0.148769 0.719691 O
0.473039 0.514425 0.283100 O
0.497991 0.515473 0.737537 O
0.491207 0.819960 0.277804 O
0.529551 0.831138 0.701259 O
0.836106 0.158872 0.251235 O
0.862018 0.156190 0.711518 O
0.811360 0.523284 0.252971 O
0.821304 0.502321 0.749558 O
0.815274 0.839772 0.249237 O
0.810006 0.854042 0.742209 O
